SystemName	geometry-24
SystemLabel	geometry-24
DM.MixingWeight	0.03
DM.NumberPulay	3
DM.Tolerance	1.d-4
DM.UseSaveDM	F
ElectronicTemperature	50 meV
MD.MaxForceTol	0.04 eV/Ang
MD.Steps	0
MD.TypeOfRun	CG
MD.UseSaveXV	F
MaxSCFIterations	500
MinSCFIterations	0
SCF.MustConverge	T
SaveDeltaRho	F
SaveElectrostaticPotential	F
SaveHS	F
SaveRho	F
SaveTotalPotential	F
SolutionMethod	diagon
Spin	non-polarized
Spin.Total	0
UseSaveData	F
WriteCoorStep	F
WriteCoorXmol	F
WriteEigenvalues	T
WriteForces	T
WriteHirshfeldPop	F
WriteKbands	F
WriteKpoints	F
WriteMDXmol	T
WriteMDhistory	F
WriteMullikenPop	0
WriteVoronoiPop	F
WriteWaveFunctions	F
SCFMustConverge	True
Spin     	non-polarized
XC.functional	GGA
XC.authors	PBE
MeshCutoff	9523.985108528535	eV
PAO.EnergyShift	0.1	eV
NumberOfSpecies	5
NumberOfAtoms	67
%block ChemicalSpecieslabel
    1 1 H.1
    2 8 O.2
    3 79 Au.gga.3
    4 79 Au.gga.4
    5 79 Au.gga.5
%endblock ChemicalSpecieslabel
%block PAO.Basis
H.1 2 0.46527
            n=1 0 2 E 99.93138 2.59932
            4.20357 1.84463
            n=2 1 1 E 24.56504 2.20231
            3.52816
O.2 3 -0.24233
            n=2 0 2 E 23.36061 3.39721
            4.50769 2.64066
            n=2 1 2 E 2.78334 5.14253
            6.14996 2.59356
            n=3 2 1 E 63.98188 0.16104
            3.54403
Au.gga.4 2
            n=6 0 2 P 1
            7.24700 5.71500
            n=5 2 2
            5.10700 2.83800
Au.gga.5 2
            n=6 0 2 P 1
            9.07500 5.78700
            n=5 2 2
            6.55700 2.87400
%endblock PAO.Basis
%block PAO.BasisSizes
    Au.gga.3	DZP
%endblock PAO.BasisSizes
LatticeConstant	1.0 Ang
%block LatticeVectors
    11.975725345373620     0.000000000000000     0.000000000000000
    0.000000000000000     10.371282377926580     0.000000000000000
    0.000000000000000     0.000000000000000     57.333623994331909
%endblock LatticeVectors
AtomicCoordinatesFormat  Ang
%block AtomicCoordinatesAndAtomicSpecies
     0.027351044     -0.054380736     24.804949682 5
     2.973394602     -0.061568780     24.849128509 5
     5.943314863     -0.071034436     24.856540595 5
     8.925888432     -0.053397555     24.844735211 5
     1.503401114      2.503572913     24.823629220 5
     4.466536324      2.510216980     24.842706406 5
     7.441739372      2.508749718     24.885718979 5
    10.412979760      2.504228547     24.832654001 5
     0.030144451      5.076265149     24.886312747 5
     2.977629219      5.084679248     24.857358776 5
     5.953093773      5.082560264     24.864047678 5
     8.919497780      5.085897252     24.979159646 5
     1.524425079      7.659964294     24.885896301 5
     4.473055318      7.662528760     24.837480186 5
     7.416868865      7.664534121     24.957883655 5
    10.409182785      7.660659779     24.908807881 5
     1.506059238      0.831121270     27.437158936 5
     4.458277245      0.827406458     27.391281209 5
     7.426198322      0.832301463     27.404604832 5
    10.411331208      0.832187517     27.360498086 5
     0.021038743      3.383971321     27.398001021 5
     2.970093402      3.392358003     27.372627373 5
     5.948317832      3.392220457     27.384547140 5
     8.916151657      3.392802218     27.447025895 5
     1.515446363      5.973732320     27.416308644 5
     4.445497443      5.995930642     27.351940255 5
     7.429579462      5.987623667     27.452359850 5
    10.419492107      5.957634493     27.430322258 5
     0.063930459      8.563177314     27.344752259 5
     2.963837688      8.564971721     27.464551785 5
     5.902402215      8.568751953     27.465841887 5
     8.921581461      8.562777909     27.401710162 5
     0.003756154      1.717002861     29.886116456 3
     2.961681373      1.726531033     29.912483755 3
     5.954206245      1.714369234     29.862011165 3
     8.924744458      1.692051541     29.894914892 3
     1.483523867      4.280935786     29.886158234 3
     4.463826422      4.314282703     29.783143660 3
     7.420298752      4.263705921     29.919569445 3
    10.382520165      4.258726571     29.921332399 3
    -0.000751940      6.854513277     29.818051366 3
     2.997459856      6.869451396     29.873757746 3
     5.963067636      6.834379118     29.891112664 3
     8.915820841      6.829592726     29.909474858 3
     1.448978908      9.460475980     30.019196781 3
     4.437391111      9.469260685     29.935975565 3
     7.469287787      9.396176388     29.883185653 3
    10.401942768      9.401278086     29.772204831 3
    -0.338166039     -0.071265780     32.287430725 3
     3.293658196      0.054887068     32.507471650 3
     6.076801722      0.014888851     32.391512561 3
     8.738259093      0.110539454     32.963800439 3
     1.475712660      2.857881119     32.404568836 3
     4.467391735      2.729720331     32.357362947 3
     7.381865669      2.636736950     32.559251621 3
    10.337743959      2.648992973     32.602256079 3
    -0.103506607      5.211742387     32.474919640 3
     3.008473097      5.289609971     32.471419459 3
     5.961726456      5.229589396     32.580150672 3
     8.832497210      5.169243582     32.639672486 3
     1.427170705      7.744585513     32.378914933 3
     4.447332850      7.747402841     32.506251036 3
     7.440939873      7.776396336     32.589713284 3
    10.336300328      7.659936222     32.570541947 3
     1.598578432      0.927647741     33.702363359 2
     1.787631351      1.082624026     34.616755290 1
    -1.246363924      1.011043363     33.548995854 1
%endblock AtomicCoordinatesAndAtomicSpecies
%block DM.InitSpin
%endblock DM.InitSpin
DM.UseSaveDM	True
#KPoint grid
%block kgrid_Monkhorst_Pack
     1       0       0  0.0
     0       1       0  0.0
     0       0       1  0.0
%endblock kgrid_Monkhorst_Pack
