SystemName	geometry-13
SystemLabel	geometry-13
DM.MixingWeight	0.03
DM.NumberPulay	3
DM.Tolerance	1.d-4
DM.UseSaveDM	F
ElectronicTemperature	50 meV
MD.MaxForceTol	0.04 eV/Ang
MD.Steps	0
MD.TypeOfRun	CG
MD.UseSaveXV	F
MaxSCFIterations	500
MinSCFIterations	0
SCF.MustConverge	T
SaveDeltaRho	F
SaveElectrostaticPotential	F
SaveHS	F
SaveRho	F
SaveTotalPotential	F
SolutionMethod	diagon
Spin	non-polarized
Spin.Total	0
UseSaveData	F
WriteCoorStep	F
WriteCoorXmol	F
WriteEigenvalues	T
WriteForces	T
WriteHirshfeldPop	F
WriteKbands	F
WriteKpoints	F
WriteMDXmol	T
WriteMDhistory	F
WriteMullikenPop	0
WriteVoronoiPop	F
WriteWaveFunctions	F
SCFMustConverge	True
Spin     	non-polarized
XC.functional	GGA
XC.authors	PBE
MeshCutoff	9523.985108528535	eV
PAO.EnergyShift	0.1	eV
NumberOfSpecies	5
NumberOfAtoms	67
%block ChemicalSpecieslabel
    1 1 H.1
    2 8 O.2
    3 79 Au.gga.3
    4 79 Au.gga.4
    5 79 Au.gga.5
%endblock ChemicalSpecieslabel
%block PAO.Basis
H.1 2 0.46527
            n=1 0 2 E 99.93138 2.59932
            4.20357 1.84463
            n=2 1 1 E 24.56504 2.20231
            3.52816
O.2 3 -0.24233
            n=2 0 2 E 23.36061 3.39721
            4.50769 2.64066
            n=2 1 2 E 2.78334 5.14253
            6.14996 2.59356
            n=3 2 1 E 63.98188 0.16104
            3.54403
Au.gga.4 2
            n=6 0 2 P 1
            7.24700 5.71500
            n=5 2 2
            5.10700 2.83800
Au.gga.5 2
            n=6 0 2 P 1
            9.07500 5.78700
            n=5 2 2
            6.55700 2.87400
%endblock PAO.Basis
%block PAO.BasisSizes
    Au.gga.3	DZP
%endblock PAO.BasisSizes
LatticeConstant	1.0 Ang
%block LatticeVectors
    11.975725345373620     0.000000000000000     0.000000000000000
    0.000000000000000     10.371282377926580     0.000000000000000
    0.000000000000000     0.000000000000000     57.333623994331909
%endblock LatticeVectors
AtomicCoordinatesFormat  Ang
%block AtomicCoordinatesAndAtomicSpecies
    -0.008046403     -0.084380757     24.835992248 5
     2.966178027     -0.103134059     24.808342499 5
     5.920674589     -0.109912341     24.876095610 5
     8.902590301     -0.089527508     24.904210609 5
     1.483941127      2.466902143     24.781931831 5
     4.446450411      2.466190450     24.823320928 5
     7.418661183      2.477057191     24.893378856 5
    10.383253302      2.471539041     24.815102399 5
    -0.008021567      5.036102329     24.845781045 5
     2.968780655      5.047961468     24.788411500 5
     5.931351651      5.046445154     24.842109876 5
     8.897811739      5.037338944     24.924749298 5
     1.499214162      7.624127049     24.869312198 5
     4.446242086      7.621886531     24.792653249 5
     7.391983566      7.620782718     24.956926999 5
    10.372544611      7.619989622     24.923065969 5
     1.484001063      0.796550645     27.374446695 5
     4.435235409      0.801601162     27.403986264 5
     7.396554080      0.812248258     27.424033112 5
    10.372346552      0.828960469     27.415278123 5
    -0.012228395      3.349717132     27.333438216 5
     2.967441124      3.368552972     27.316441035 5
     5.925085076      3.374555051     27.384867790 5
     8.883027098      3.379737876     27.484501059 5
     1.477224084      5.940998545     27.339146481 5
     4.438165045      5.966467760     27.346577945 5
     7.408505414      5.947663646     27.453911803 5
    10.379879869      5.929872967     27.430223619 5
     0.030902803      8.536670966     27.353332740 5
     2.947614657      8.541670942     27.408812757 5
     5.899355691      8.520674127     27.470984333 5
     8.893266209      8.521650143     27.436073152 5
    -0.018168802      1.706971035     29.884303528 3
     2.938083588      1.690279673     29.853595379 3
     5.936706083      1.690344634     29.870591544 3
     8.918205583      1.665255478     29.958627417 3
     1.466161093      4.295551301     29.741801933 3
     4.437425672      4.284515428     29.796169181 3
     7.400231902      4.247755402     29.965593961 3
    10.373473437      4.239062518     29.910009714 3
    -0.033024290      6.840845455     29.829158974 3
     2.977442513      6.857107738     29.824844847 3
     5.927827241      6.818117050     29.926032223 3
     8.885525145      6.794039621     29.946442746 3
     1.444603143      9.415300441     29.945946137 3
     4.432557909      9.427506270     29.913212117 3
     7.432867786      9.383977594     29.920028819 3
    10.378093547      9.377231345     29.800775287 3
    -0.300600057     -0.084105647     32.346888590 3
     3.003353034      0.080875158     32.479578168 3
     5.899068363      0.064984316     32.515634421 3
     8.715521405      0.009393332     32.655157704 3
     1.576338284      2.967901988     32.173296046 3
     4.535402366      2.665324773     32.378109026 3
     7.458232341      2.608636394     32.576795129 3
    10.353960551      2.478795464     32.928706292 3
    -0.178064018      5.184946893     32.466025789 3
     3.083727410      5.360023504     32.430554922 3
     5.970435058      5.201423544     32.587160153 3
     8.847830316      5.104595406     32.726978934 3
     1.371990300      7.739657346     32.400855269 3
     4.404371593      7.856195696     32.570115727 3
     7.354240146      7.736376573     32.585389601 3
    10.257932168      7.669750995     32.624100105 3
     1.480511071      1.456427312     33.960914812 2
     1.749475169      1.796938187     34.848862289 1
    -0.031955697      1.426092582     33.667694161 1
%endblock AtomicCoordinatesAndAtomicSpecies
%block DM.InitSpin
%endblock DM.InitSpin
DM.UseSaveDM	True
#KPoint grid
%block kgrid_Monkhorst_Pack
     1       0       0  0.0
     0       1       0  0.0
     0       0       1  0.0
%endblock kgrid_Monkhorst_Pack
