SystemName	geometry-9
SystemLabel	geometry-9
DM.MixingWeight	0.03
DM.NumberPulay	3
DM.Tolerance	1.d-4
DM.UseSaveDM	F
ElectronicTemperature	50 meV
MD.MaxForceTol	0.04 eV/Ang
MD.Steps	0
MD.TypeOfRun	CG
MD.UseSaveXV	F
MaxSCFIterations	500
MinSCFIterations	0
SCF.MustConverge	T
SaveDeltaRho	F
SaveElectrostaticPotential	F
SaveHS	F
SaveRho	F
SaveTotalPotential	F
SolutionMethod	diagon
Spin	non-polarized
Spin.Total	0
UseSaveData	F
WriteCoorStep	F
WriteCoorXmol	F
WriteEigenvalues	T
WriteForces	T
WriteHirshfeldPop	F
WriteKbands	F
WriteKpoints	F
WriteMDXmol	T
WriteMDhistory	F
WriteMullikenPop	0
WriteVoronoiPop	F
WriteWaveFunctions	F
SCFMustConverge	True
Spin     	non-polarized
XC.functional	GGA
XC.authors	PBE
MeshCutoff	9523.985108528535	eV
PAO.EnergyShift	0.1	eV
NumberOfSpecies	5
NumberOfAtoms	67
%block ChemicalSpecieslabel
    1 1 H.1
    2 8 O.2
    3 79 Au.gga.3
    4 79 Au.gga.4
    5 79 Au.gga.5
%endblock ChemicalSpecieslabel
%block PAO.Basis
H.1 2 0.46527
            n=1 0 2 E 99.93138 2.59932
            4.20357 1.84463
            n=2 1 1 E 24.56504 2.20231
            3.52816
O.2 3 -0.24233
            n=2 0 2 E 23.36061 3.39721
            4.50769 2.64066
            n=2 1 2 E 2.78334 5.14253
            6.14996 2.59356
            n=3 2 1 E 63.98188 0.16104
            3.54403
Au.gga.4 2
            n=6 0 2 P 1
            7.24700 5.71500
            n=5 2 2
            5.10700 2.83800
Au.gga.5 2
            n=6 0 2 P 1
            9.07500 5.78700
            n=5 2 2
            6.55700 2.87400
%endblock PAO.Basis
%block PAO.BasisSizes
    Au.gga.3	DZP
%endblock PAO.BasisSizes
LatticeConstant	1.0 Ang
%block LatticeVectors
    11.975725345373620     0.000000000000000     0.000000000000000
    0.000000000000000     10.371282377926580     0.000000000000000
    0.000000000000000     0.000000000000000     57.333623994331909
%endblock LatticeVectors
AtomicCoordinatesFormat  Ang
%block AtomicCoordinatesAndAtomicSpecies
    -0.003624634     -0.110755529     24.821864927 5
     2.961000797     -0.117881432     24.801573604 5
     5.922636789     -0.117397061     24.852846721 5
     8.899975190     -0.110206627     24.866991622 5
     1.478300113      2.455526127     24.797357295 5
     4.447199060      2.455981811     24.808776678 5
     7.418996691      2.456260579     24.875994416 5
    10.385120566      2.460885575     24.822690374 5
    -0.006865710      5.031775657     24.807849956 5
     2.962256761      5.033946664     24.765983009 5
     5.924856481      5.031569519     24.844064839 5
     8.903861661      5.025867585     24.891540099 5
     1.483624125      7.603296639     24.800936723 5
     4.440660407      7.603366649     24.786623945 5
     7.401230150      7.602389474     24.906633566 5
    10.384623163      7.600516230     24.854073187 5
     1.470088957      0.801988230     27.352599793 5
     4.439950632      0.797487963     27.369812264 5
     7.407820174      0.804167482     27.412460402 5
    10.378473255      0.814466096     27.371808611 5
    -0.018410561      3.365502279     27.331044048 5
     2.966383960      3.378242814     27.305833247 5
     5.929966834      3.375740952     27.376152666 5
     8.888822218      3.377756212     27.443991419 5
     1.475343955      5.960844578     27.313901562 5
     4.437423750      5.957535978     27.352747058 5
     7.406608090      5.940611181     27.427607387 5
    10.391777495      5.938403401     27.406070066 5
     0.013530792      8.511648503     27.346284579 5
     2.949092933      8.523705122     27.371467354 5
     5.910906963      8.518200607     27.419397181 5
     8.889010347      8.514400842     27.389041544 5
    -0.021272753      1.699663329     29.843997886 3
     2.954282275      1.697848109     29.790657383 3
     5.933572303      1.693951129     29.858796530 3
     8.904698582      1.674220293     29.921590026 3
     1.468804013      4.301730994     29.729447002 3
     4.443823149      4.277338068     29.809813399 3
     7.409595634      4.243681209     29.940272700 3
    10.374412101      4.249710397     29.887727908 3
    -0.026553669      6.837226797     29.845938275 3
     2.968496381      6.849674801     29.832931328 3
     5.930061286      6.828012840     29.899847426 3
     8.890018255      6.809098464     29.914612424 3
     1.457352596      9.413801286     29.865211020 3
     4.455644824      9.413756887     29.862468145 3
     7.418712663      9.390348882     29.909624891 3
    10.351695932      9.381875798     29.767775911 3
    -0.236408830     -0.032882449     32.298065876 3
     2.973116629      0.090801897     32.357493309 3
     5.910047711      0.102965278     32.554443325 3
     8.788398999      0.063926904     32.641602011 3
     1.545101375      2.809058760     32.230214020 3
     4.487439518      2.688243546     32.433172729 3
     7.424175743      2.629658337     32.610151343 3
    10.403029661      2.619575527     32.585054106 3
    -0.084895224      5.219717938     32.472207597 3
     3.016129016      5.299861793     32.455796374 3
     5.955917709      5.232758892     32.563261794 3
     8.868976193      5.177441967     32.633425344 3
     1.415492726      7.779436360     32.424285610 3
     4.410689607      7.843650623     32.544557899 3
     7.358816989      7.786685369     32.567946612 3
    10.293140603      7.732401102     32.595281314 3
     0.983296795      1.255626551     34.695914320 2
     1.317531750      1.903225608     35.169286248 1
     0.220576014      1.512830806     34.518519579 1
%endblock AtomicCoordinatesAndAtomicSpecies
%block DM.InitSpin
%endblock DM.InitSpin
DM.UseSaveDM	True
#KPoint grid
%block kgrid_Monkhorst_Pack
     1       0       0  0.0
     0       1       0  0.0
     0       0       1  0.0
%endblock kgrid_Monkhorst_Pack
