SystemName	geometry-4
SystemLabel	geometry-4
DM.MixingWeight	0.03
DM.NumberPulay	3
DM.Tolerance	1.d-4
DM.UseSaveDM	F
ElectronicTemperature	50 meV
MD.MaxForceTol	0.04 eV/Ang
MD.Steps	0
MD.TypeOfRun	CG
MD.UseSaveXV	F
MaxSCFIterations	500
MinSCFIterations	0
SCF.MustConverge	T
SaveDeltaRho	F
SaveElectrostaticPotential	F
SaveHS	F
SaveRho	F
SaveTotalPotential	F
SolutionMethod	diagon
Spin	non-polarized
Spin.Total	0
UseSaveData	F
WriteCoorStep	F
WriteCoorXmol	F
WriteEigenvalues	T
WriteForces	T
WriteHirshfeldPop	F
WriteKbands	F
WriteKpoints	F
WriteMDXmol	T
WriteMDhistory	F
WriteMullikenPop	0
WriteVoronoiPop	F
WriteWaveFunctions	F
SCFMustConverge	True
Spin     	non-polarized
XC.functional	GGA
XC.authors	PBE
MeshCutoff	9523.985108528535	eV
PAO.EnergyShift	0.1	eV
NumberOfSpecies	5
NumberOfAtoms	67
%block ChemicalSpecieslabel
    1 1 H.1
    2 8 O.2
    3 79 Au.gga.3
    4 79 Au.gga.4
    5 79 Au.gga.5
%endblock ChemicalSpecieslabel
%block PAO.Basis
H.1 2 0.46527
            n=1 0 2 E 99.93138 2.59932
            4.20357 1.84463
            n=2 1 1 E 24.56504 2.20231
            3.52816
O.2 3 -0.24233
            n=2 0 2 E 23.36061 3.39721
            4.50769 2.64066
            n=2 1 2 E 2.78334 5.14253
            6.14996 2.59356
            n=3 2 1 E 63.98188 0.16104
            3.54403
Au.gga.4 2
            n=6 0 2 P 1
            7.24700 5.71500
            n=5 2 2
            5.10700 2.83800
Au.gga.5 2
            n=6 0 2 P 1
            9.07500 5.78700
            n=5 2 2
            6.55700 2.87400
%endblock PAO.Basis
%block PAO.BasisSizes
    Au.gga.3	DZP
%endblock PAO.BasisSizes
LatticeConstant	1.0 Ang
%block LatticeVectors
    11.975725345373620     0.000000000000000     0.000000000000000
    0.000000000000000     10.371282377926580     0.000000000000000
    0.000000000000000     0.000000000000000     57.333623994331909
%endblock LatticeVectors
AtomicCoordinatesFormat  Ang
%block AtomicCoordinatesAndAtomicSpecies
    -0.004953942     -0.099534893     24.825108293 5
     2.960962870     -0.110635981     24.800671890 5
     5.919322905     -0.111718480     24.866564752 5
     8.898945580     -0.100196285     24.884750166 5
     1.478574772      2.462139120     24.792713474 5
     4.446117993      2.462515522     24.812137101 5
     7.418320686      2.465339847     24.892190095 5
    10.383309839      2.468326740     24.823886489 5
    -0.008159271      5.037644634     24.819677671 5
     2.963361830      5.042305008     24.765119333 5
     5.924173232      5.039724932     24.848651809 5
     8.901215514      5.032376564     24.915050545 5
     1.487484807      7.613102708     24.814838853 5
     4.440097721      7.612168952     24.782826768 5
     7.395187498      7.611038473     24.934419913 5
    10.380122537      7.609523889     24.877647829 5
     1.471215501      0.801247253     27.357111423 5
     4.436538115      0.798502013     27.380713487 5
     7.402657886      0.807218905     27.425893291 5
    10.374538940      0.820458570     27.384321309 5
    -0.019711873      3.361033493     27.328550331 5
     2.966770128      3.377103942     27.300941262 5
     5.927645309      3.376700966     27.381844642 5
     8.884337931      3.379418101     27.470568005 5
     1.474805684      5.960165241     27.313383840 5
     4.435281180      5.962165242     27.351524726 5
     7.404123221      5.942301271     27.447090450 5
    10.388652065      5.936254871     27.421951548 5
     0.020348915      8.517524273     27.344302294 5
     2.946340656      8.529565003     27.381578670 5
     5.903739440      8.519177698     27.442783723 5
     8.886052810      8.516311110     27.405593474 5
    -0.023948373      1.699818529     29.854094007 3
     2.948209377      1.693615783     29.798161400 3
     5.933835832      1.691277392     29.864686080 3
     8.907511809      1.665847540     29.946245678 3
     1.466544147      4.304412126     29.712647586 3
     4.441255344      4.278902612     29.801978902 3
     7.405611931      4.238268864     29.964478912 3
    10.371229927      4.241964636     29.902076104 3
    -0.032455655      6.836499000     29.842508730 3
     2.970781817      6.851947959     29.829955808 3
     5.928340881      6.821423866     29.917403413 3
     8.886135424      6.798265592     29.936409513 3
     1.450174049      9.411943047     29.886962676 3
     4.451095379      9.415321176     29.877703892 3
     7.421361086      9.383080192     29.925415855 3
    10.350446590      9.373249334     29.760854019 3
    -0.297656615     -0.076424682     32.275074712 3
     2.977973881      0.080696328     32.362801229 3
     5.900812233      0.087740499     32.554288385 3
     8.747968048      0.037077311     32.678353147 3
     1.566453937      2.865468155     32.169896077 3
     4.504999004      2.678223481     32.410658250 3
     7.434614251      2.609252048     32.623172367 3
    10.398002071      2.564494143     32.685080682 3
    -0.122136788      5.198707674     32.467057669 3
     3.042467027      5.317879114     32.442981180 3
     5.964183340      5.214783883     32.582276061 3
     8.857789291      5.139719184     32.682047267 3
     1.392038764      7.756513575     32.406400035 3
     4.400600881      7.845083730     32.559673486 3
     7.345678607      7.761777367     32.584587918 3
    10.266893427      7.694485865     32.620446398 3
     1.265447458      1.331939277     34.361950636 2
     1.502084245      1.942909774     35.076007225 1
     0.344603271      1.473078693     34.161734188 1
%endblock AtomicCoordinatesAndAtomicSpecies
%block DM.InitSpin
%endblock DM.InitSpin
DM.UseSaveDM	True
#KPoint grid
%block kgrid_Monkhorst_Pack
     1       0       0  0.0
     0       1       0  0.0
     0       0       1  0.0
%endblock kgrid_Monkhorst_Pack
