SystemName	geometry-8
SystemLabel	geometry-8
DM.MixingWeight	0.03
DM.NumberPulay	3
DM.Tolerance	1.d-4
DM.UseSaveDM	F
ElectronicTemperature	50 meV
MD.MaxForceTol	0.04 eV/Ang
MD.Steps	0
MD.TypeOfRun	CG
MD.UseSaveXV	F
MaxSCFIterations	500
MinSCFIterations	0
SCF.MustConverge	T
SaveDeltaRho	F
SaveElectrostaticPotential	F
SaveHS	F
SaveRho	F
SaveTotalPotential	F
SolutionMethod	diagon
Spin	non-polarized
Spin.Total	0
UseSaveData	F
WriteCoorStep	F
WriteCoorXmol	F
WriteEigenvalues	T
WriteForces	T
WriteHirshfeldPop	F
WriteKbands	F
WriteKpoints	F
WriteMDXmol	T
WriteMDhistory	F
WriteMullikenPop	0
WriteVoronoiPop	F
WriteWaveFunctions	F
SCFMustConverge	True
Spin     	non-polarized
XC.functional	GGA
XC.authors	PBE
MeshCutoff	9523.985108528535	eV
PAO.EnergyShift	0.1	eV
NumberOfSpecies	5
NumberOfAtoms	67
%block ChemicalSpecieslabel
    1 1 H.1
    2 8 O.2
    3 79 Au.gga.3
    4 79 Au.gga.4
    5 79 Au.gga.5
%endblock ChemicalSpecieslabel
%block PAO.Basis
H.1 2 0.46527
            n=1 0 2 E 99.93138 2.59932
            4.20357 1.84463
            n=2 1 1 E 24.56504 2.20231
            3.52816
O.2 3 -0.24233
            n=2 0 2 E 23.36061 3.39721
            4.50769 2.64066
            n=2 1 2 E 2.78334 5.14253
            6.14996 2.59356
            n=3 2 1 E 63.98188 0.16104
            3.54403
Au.gga.4 2
            n=6 0 2 P 1
            7.24700 5.71500
            n=5 2 2
            5.10700 2.83800
Au.gga.5 2
            n=6 0 2 P 1
            9.07500 5.78700
            n=5 2 2
            6.55700 2.87400
%endblock PAO.Basis
%block PAO.BasisSizes
    Au.gga.3	DZP
%endblock PAO.BasisSizes
LatticeConstant	1.0 Ang
%block LatticeVectors
    11.975725345373620     0.000000000000000     0.000000000000000
    0.000000000000000     10.371282377926580     0.000000000000000
    0.000000000000000     0.000000000000000     57.333623994331909
%endblock LatticeVectors
AtomicCoordinatesFormat  Ang
%block AtomicCoordinatesAndAtomicSpecies
    -0.000605426     -0.133013841     24.822439188 5
     2.967433057     -0.134296947     24.811481349 5
     5.936434349     -0.134092319     24.814648907 5
     8.908017473     -0.133068990     24.822860115 5
     1.483389304      2.438508272     24.804035330 5
     4.453722612      2.438099577     24.807905328 5
     7.422949325      2.437745271     24.820630195 5
    10.392712877      2.439562941     24.808709285 5
    -0.001309202      5.010659342     24.792757073 5
     2.965774431      5.011395779     24.794117792 5
     5.936476857      5.011023126     24.822293528 5
     8.910882962      5.009903533     24.817917866 5
     1.482853301      7.581626446     24.806155047 5
     4.451020049      7.583333784     24.809390346 5
     7.421037655      7.583129551     24.830748704 5
    10.394112254      7.581134370     24.816293267 5
     1.479695981      0.801317952     27.356948406 5
     4.452078908      0.798786445     27.354228601 5
     7.421645959      0.799920778     27.363212069 5
    10.393224471      0.802969690     27.359917740 5
    -0.003923299      3.370349360     27.345983578 5
     2.969300584      3.373904497     27.337638940 5
     5.937879268      3.371729508     27.361822581 5
     8.905291156      3.373326504     27.363024749 5
     1.480546843      5.945516966     27.339928463 5
     4.449879064      5.945558155     27.353479785 5
     7.422371121      5.942253182     27.366651467 5
    10.396630336      5.940811380     27.357588113 5
     0.001823960      8.512125790     27.362205365 5
     2.962243819      8.516343281     27.359274474 5
     5.934451155      8.516326454     27.364310233 5
     8.908861304      8.514898345     27.362005763 5
    -0.004306351      1.707892243     29.848767047 3
     2.968044982      1.708016064     29.819819246 3
     5.938239465      1.702342190     29.846100241 3
     8.907270837      1.703442841     29.845960067 3
     1.480949551      4.285313861     29.811632240 3
     4.452251930      4.278259122     29.834225328 3
     7.422325902      4.271992383     29.857813666 3
    10.391162179      4.275543784     29.841445734 3
    -0.004950101      6.845700673     29.844744007 3
     2.970150005      6.849921160     29.835535635 3
     5.937800713      6.847508214     29.849022871 3
     8.904780673      6.843150223     29.849422968 3
     1.479742809      9.423702672     29.848989523 3
     4.456465082      9.420141591     29.839517298 3
     7.422024888      9.416408206     29.849704502 3
    10.385375910      9.417718398     29.832166088 3
    -0.041887034      0.101317359     32.457396882 3
     2.971922973      0.129656401     32.451620800 3
     5.934783770      0.136314851     32.517011397 3
     8.887620210      0.126603627     32.508772993 3
     1.499318233      2.726255486     32.439231053 3
     4.460920573      2.708778884     32.485994462 3
     7.420719632      2.697569040     32.519374669 3
    10.391824456      2.703393424     32.490980446 3
    -0.012644113      5.271955665     32.490894554 3
     2.976012951      5.285384295     32.486084789 3
     5.941764274      5.278456865     32.504381591 3
     8.901834551      5.267743189     32.515081398 3
     1.476069570      7.839240803     32.478218887 3
     4.448768431      7.855067595     32.505951729 3
     7.410251256      7.846937047     32.510942410 3
    10.373764818      7.831408709     32.508920180 3
     0.151767802      1.114467995     35.434899168 2
     0.855876820      1.674902503     35.264463020 1
    -0.566039734      1.597388018     35.156841212 1
%endblock AtomicCoordinatesAndAtomicSpecies
%block DM.InitSpin
%endblock DM.InitSpin
DM.UseSaveDM	True
#KPoint grid
%block kgrid_Monkhorst_Pack
     1       0       0  0.0
     0       1       0  0.0
     0       0       1  0.0
%endblock kgrid_Monkhorst_Pack
