SystemName	geometry-19
SystemLabel	geometry-19
DM.MixingWeight	0.03
DM.NumberPulay	3
DM.Tolerance	1.d-4
DM.UseSaveDM	F
ElectronicTemperature	50 meV
MD.MaxForceTol	0.04 eV/Ang
MD.Steps	0
MD.TypeOfRun	CG
MD.UseSaveXV	F
MaxSCFIterations	500
MinSCFIterations	0
SCF.MustConverge	T
SaveDeltaRho	F
SaveElectrostaticPotential	F
SaveHS	F
SaveRho	F
SaveTotalPotential	F
SolutionMethod	diagon
Spin	non-polarized
Spin.Total	0
UseSaveData	F
WriteCoorStep	F
WriteCoorXmol	F
WriteEigenvalues	T
WriteForces	T
WriteHirshfeldPop	F
WriteKbands	F
WriteKpoints	F
WriteMDXmol	T
WriteMDhistory	F
WriteMullikenPop	0
WriteVoronoiPop	F
WriteWaveFunctions	F
SCFMustConverge	True
Spin     	non-polarized
XC.functional	GGA
XC.authors	PBE
MeshCutoff	9523.985108528535	eV
PAO.EnergyShift	0.1	eV
NumberOfSpecies	5
NumberOfAtoms	67
%block ChemicalSpecieslabel
    1 1 H.1
    2 8 O.2
    3 79 Au.gga.3
    4 79 Au.gga.4
    5 79 Au.gga.5
%endblock ChemicalSpecieslabel
%block PAO.Basis
H.1 2 0.46527
            n=1 0 2 E 99.93138 2.59932
            4.20357 1.84463
            n=2 1 1 E 24.56504 2.20231
            3.52816
O.2 3 -0.24233
            n=2 0 2 E 23.36061 3.39721
            4.50769 2.64066
            n=2 1 2 E 2.78334 5.14253
            6.14996 2.59356
            n=3 2 1 E 63.98188 0.16104
            3.54403
Au.gga.4 2
            n=6 0 2 P 1
            7.24700 5.71500
            n=5 2 2
            5.10700 2.83800
Au.gga.5 2
            n=6 0 2 P 1
            9.07500 5.78700
            n=5 2 2
            6.55700 2.87400
%endblock PAO.Basis
%block PAO.BasisSizes
    Au.gga.3	DZP
%endblock PAO.BasisSizes
LatticeConstant	1.0 Ang
%block LatticeVectors
    11.975725345373620     0.000000000000000     0.000000000000000
    0.000000000000000     10.371282377926580     0.000000000000000
    0.000000000000000     0.000000000000000     57.333623994331909
%endblock LatticeVectors
AtomicCoordinatesFormat  Ang
%block AtomicCoordinatesAndAtomicSpecies
    -0.012500191     -0.083313480     24.838169891 5
     2.966704051     -0.104010935     24.816420214 5
     5.920911035     -0.113559641     24.875975991 5
     8.903565834     -0.089721020     24.912312375 5
     1.485709180      2.464695033     24.774757693 5
     4.441256817      2.463633518     24.830026537 5
     7.416359278      2.477632845     24.887983687 5
    10.381067462      2.467662048     24.812308831 5
    -0.009033279      5.031431959     24.857690307 5
     2.966807617      5.046500518     24.799441265 5
     5.931095383      5.045095603     24.834881095 5
     8.894119302      5.034263139     24.926126220 5
     1.502847586      7.623902328     24.899200329 5
     4.444918185      7.622770033     24.801661527 5
     7.387866957      7.621259157     24.963786655 5
    10.366878950      7.619664069     24.943762976 5
     1.489794987      0.790975445     27.377376683 5
     4.432275626      0.799144363     27.415792883 5
     7.390474822      0.811018714     27.418822739 5
    10.365025664      0.829576311     27.426134025 5
    -0.012883204      3.343764419     27.335112932 5
     2.958563259      3.363667850     27.330663360 5
     5.918791241      3.369444734     27.378138793 5
     8.879100755      3.376875946     27.487764286 5
     1.477303743      5.926561923     27.360317300 5
     4.435490841      5.968222352     27.340537059 5
     7.405555557      5.945468612     27.450170854 5
    10.369566202      5.924055279     27.432687951 5
     0.031439673      8.541845301     27.359427403 5
     2.943913636      8.544724439     27.433132419 5
     5.891992372      8.522037917     27.483445250 5
     8.893345424      8.520283487     27.446987544 5
    -0.017989176      1.707284390     29.873751116 3
     2.927803500      1.693783463     29.885593751 3
     5.931729307      1.691261291     29.866798589 3
     8.919395994      1.667019556     29.960695183 3
     1.455236706      4.284317061     29.782762065 3
     4.428149847      4.285926812     29.787971603 3
     7.388098523      4.255971090     29.954033971 3
    10.367491332      4.236224868     29.920251947 3
    -0.034570059      6.839943364     29.821692030 3
     2.973401545      6.851887895     29.830639629 3
     5.923086690      6.819387355     29.919370167 3
     8.882530341      6.795011110     29.941481855 3
     1.436566711      9.418739730     29.973023961 3
     4.414261738      9.435952158     29.942913259 3
     7.436843422      9.387992056     29.908701535 3
    10.391424063      9.378829264     29.826100286 3
    -0.238591821     -0.046466575     32.379041964 3
     3.047053606      0.075538482     32.559151555 3
     5.919595554      0.048368127     32.488233507 3
     8.735595318      0.013205813     32.585756985 3
     1.524183305      2.976803500     32.214817338 3
     4.534736749      2.666448026     32.349088184 3
     7.443191045      2.623302438     32.540944220 3
    10.289844163      2.509007636     33.002975915 3
    -0.191893137      5.203736489     32.463031402 3
     3.070386446      5.361371037     32.433765847 3
     5.949366602      5.210006929     32.576241203 3
     8.836044167      5.114645027     32.717866044 3
     1.372848114      7.746673516     32.411284502 3
     4.413543873      7.846699302     32.560072376 3
     7.373599801      7.734376284     32.579052271 3
    10.268984770      7.690727592     32.621482666 3
     1.614814006      1.491140637     33.903767779 2
     1.996772255      1.785885710     34.750361900 1
    -0.367153962      1.340132919     33.551795867 1
%endblock AtomicCoordinatesAndAtomicSpecies
%block DM.InitSpin
%endblock DM.InitSpin
DM.UseSaveDM	True
#KPoint grid
%block kgrid_Monkhorst_Pack
     1       0       0  0.0
     0       1       0  0.0
     0       0       1  0.0
%endblock kgrid_Monkhorst_Pack
