SystemName	geometry-5
SystemLabel	geometry-5
DM.MixingWeight	0.03
DM.NumberPulay	3
DM.Tolerance	1.d-4
DM.UseSaveDM	F
ElectronicTemperature	50 meV
MD.MaxForceTol	0.04 eV/Ang
MD.Steps	0
MD.TypeOfRun	CG
MD.UseSaveXV	F
MaxSCFIterations	500
MinSCFIterations	0
SCF.MustConverge	T
SaveDeltaRho	F
SaveElectrostaticPotential	F
SaveHS	F
SaveRho	F
SaveTotalPotential	F
SolutionMethod	diagon
Spin	non-polarized
Spin.Total	0
UseSaveData	F
WriteCoorStep	F
WriteCoorXmol	F
WriteEigenvalues	T
WriteForces	T
WriteHirshfeldPop	F
WriteKbands	F
WriteKpoints	F
WriteMDXmol	T
WriteMDhistory	F
WriteMullikenPop	0
WriteVoronoiPop	F
WriteWaveFunctions	F
SCFMustConverge	True
Spin     	non-polarized
XC.functional	GGA
XC.authors	PBE
MeshCutoff	9523.985108528535	eV
PAO.EnergyShift	0.1	eV
NumberOfSpecies	5
NumberOfAtoms	67
%block ChemicalSpecieslabel
    1 1 H.1
    2 8 O.2
    3 79 Au.gga.3
    4 79 Au.gga.4
    5 79 Au.gga.5
%endblock ChemicalSpecieslabel
%block PAO.Basis
H.1 2 0.46527
            n=1 0 2 E 99.93138 2.59932
            4.20357 1.84463
            n=2 1 1 E 24.56504 2.20231
            3.52816
O.2 3 -0.24233
            n=2 0 2 E 23.36061 3.39721
            4.50769 2.64066
            n=2 1 2 E 2.78334 5.14253
            6.14996 2.59356
            n=3 2 1 E 63.98188 0.16104
            3.54403
Au.gga.4 2
            n=6 0 2 P 1
            7.24700 5.71500
            n=5 2 2
            5.10700 2.83800
Au.gga.5 2
            n=6 0 2 P 1
            9.07500 5.78700
            n=5 2 2
            6.55700 2.87400
%endblock PAO.Basis
%block PAO.BasisSizes
    Au.gga.3	DZP
%endblock PAO.BasisSizes
LatticeConstant	1.0 Ang
%block LatticeVectors
    11.975725345373620     0.000000000000000     0.000000000000000
    0.000000000000000     10.371282377926580     0.000000000000000
    0.000000000000000     0.000000000000000     57.333623994331909
%endblock LatticeVectors
AtomicCoordinatesFormat  Ang
%block AtomicCoordinatesAndAtomicSpecies
    -0.004323579     -0.104846320     24.823212539 5
     2.960661808     -0.113955756     24.800664088 5
     5.920531036     -0.114116817     24.860621121 5
     8.899131052     -0.104779462     24.876754882 5
     1.478157899      2.459216272     24.795069168 5
     4.446433063      2.459683166     24.810232400 5
     7.418521070      2.461068988     24.885707814 5
    10.383977855      2.465151287     24.823912684 5
    -0.007689564      5.035362298     24.813618659 5
     2.962562309      5.038656728     24.764169920 5
     5.923986592      5.036092186     24.847144603 5
     8.902395498      5.029464980     24.905271968 5
     1.485301483      7.608576992     24.806505023 5
     4.439909686      7.608131836     24.783830355 5
     7.397674539      7.607052343     24.922281510 5
    10.382249513      7.605341559     24.865960402 5
     1.470069691      0.801729592     27.354305603 5
     4.437898804      0.797868629     27.375205500 5
     7.404948036      0.805691226     27.420684964 5
    10.376085820      0.817601277     27.377707290 5
    -0.019685526      3.363375029     27.329229579 5
     2.966439021      3.377993588     27.302100057 5
     5.928605495      3.376373617     27.379329783 5
     8.886099792      3.378700689     27.459387044 5
     1.474856494      5.961379417     27.312301991 5
     4.435896463      5.960109572     27.352212071 5
     7.404771351      5.941263909     27.439000083 5
    10.390242339      5.937389403     27.415274684 5
     0.017032249      8.514119443     27.344616670 5
     2.947274878      8.526568945     27.376308825 5
     5.906694830      8.518710407     27.432101723 5
     8.886755776      8.515201698     27.397425654 5
    -0.023263571      1.699318287     29.848120424 3
     2.951040033      1.695518798     29.792288026 3
     5.933473098      1.692386595     29.861964248 3
     8.905769234      1.669174548     29.935900211 3
     1.467275627      4.303741295     29.718004861 3
     4.442342790      4.277957963     29.805274724 3
     7.407305701      4.239920772     29.954787273 3
    10.372238945      4.245119866     29.896136719 3
    -0.030148471      6.836496939     29.844559808 3
     2.969409002      6.850656552     29.831509191 3
     5.928960453      6.824217030     29.909918932 3
     8.887634399      6.802763069     29.927208496 3
     1.453196158      9.412501735     29.875223152 3
     4.453731040      9.414076743     29.870014875 3
     7.419667073      9.385923291     29.919414079 3
    10.349428335      9.376391376     29.761496488 3
    -0.272571359     -0.058358184     32.280142018 3
     2.975102248      0.084558141     32.354748494 3
     5.904793892      0.094849758     32.556345927 3
     8.766071591      0.049304620     32.664255478 3
     1.556721097      2.837278965     32.193827484 3
     4.496272301      2.682932441     32.421018252 3
     7.428867375      2.617481970     32.620395736 3
    10.401692642      2.591721654     32.632217475 3
    -0.104372603      5.208049418     32.469084113 3
     3.029445705      5.308280870     32.448792484 3
     5.960243298      5.222756007     32.574378452 3
     8.862595833      5.156761537     32.660162819 3
     1.402436011      7.766617066     32.413898523 3
     4.404439337      7.843722920     32.552986587 3
     7.350558083      7.773033145     32.577937194 3
    10.277849146      7.711154360     32.610364744 3
     1.143989270      1.295139742     34.516365579 2
     1.438547013      1.923037060     35.125007635 1
     0.314232106      1.491836449     34.322036710 1
%endblock AtomicCoordinatesAndAtomicSpecies
%block DM.InitSpin
%endblock DM.InitSpin
DM.UseSaveDM	True
#KPoint grid
%block kgrid_Monkhorst_Pack
     1       0       0  0.0
     0       1       0  0.0
     0       0       1  0.0
%endblock kgrid_Monkhorst_Pack
