SystemName	geometry-1
SystemLabel	geometry-1
DM.MixingWeight	0.03
DM.NumberPulay	3
DM.Tolerance	1.d-4
DM.UseSaveDM	F
ElectronicTemperature	50 meV
MD.MaxForceTol	0.04 eV/Ang
MD.Steps	0
MD.TypeOfRun	CG
MD.UseSaveXV	F
MaxSCFIterations	500
MinSCFIterations	0
SCF.MustConverge	T
SaveDeltaRho	F
SaveElectrostaticPotential	F
SaveHS	F
SaveRho	F
SaveTotalPotential	F
SolutionMethod	diagon
Spin	non-polarized
Spin.Total	0
UseSaveData	F
WriteCoorStep	F
WriteCoorXmol	F
WriteEigenvalues	T
WriteForces	T
WriteHirshfeldPop	F
WriteKbands	F
WriteKpoints	F
WriteMDXmol	T
WriteMDhistory	F
WriteMullikenPop	0
WriteVoronoiPop	F
WriteWaveFunctions	F
SCFMustConverge	True
Spin     	non-polarized
XC.functional	GGA
XC.authors	PBE
MeshCutoff	9523.985108528535	eV
PAO.EnergyShift	0.1	eV
NumberOfSpecies	5
NumberOfAtoms	67
%block ChemicalSpecieslabel
    1 1 H.1
    2 8 O.2
    3 79 Au.gga.3
    4 79 Au.gga.4
    5 79 Au.gga.5
%endblock ChemicalSpecieslabel
%block PAO.Basis
H.1 2 0.46527
            n=1 0 2 E 99.93138 2.59932
            4.20357 1.84463
            n=2 1 1 E 24.56504 2.20231
            3.52816
O.2 3 -0.24233
            n=2 0 2 E 23.36061 3.39721
            4.50769 2.64066
            n=2 1 2 E 2.78334 5.14253
            6.14996 2.59356
            n=3 2 1 E 63.98188 0.16104
            3.54403
Au.gga.4 2
            n=6 0 2 P 1
            7.24700 5.71500
            n=5 2 2
            5.10700 2.83800
Au.gga.5 2
            n=6 0 2 P 1
            9.07500 5.78700
            n=5 2 2
            6.55700 2.87400
%endblock PAO.Basis
%block PAO.BasisSizes
    Au.gga.3	DZP
%endblock PAO.BasisSizes
LatticeConstant	1.0 Ang
%block LatticeVectors
    11.975725345373620     0.000000000000000     0.000000000000000
    0.000000000000000     10.371282377926580     0.000000000000000
    0.000000000000000     0.000000000000000     57.333623994331909
%endblock LatticeVectors
AtomicCoordinatesFormat  Ang
%block AtomicCoordinatesAndAtomicSpecies
    -0.001227944     -0.128874161     24.821744844 5
     2.965692714     -0.131079467     24.808981719 5
     5.933247244     -0.130546409     24.822695063 5
     8.906009395     -0.128566132     24.831879866 5
     1.481966373      2.441990629     24.802967936 5
     4.452102410      2.441827770     24.807603790 5
     7.421974742      2.441229800     24.832890569 5
    10.390942259      2.444065600     24.812289291 5
    -0.002608939      5.015369052     24.794903803 5
     2.964617460      5.016088823     24.786669010 5
     5.933430098      5.015206457     24.827387914 5
     8.909402703      5.013111024     24.833925088 5
     1.482421389      7.585839871     24.802527227 5
     4.448289051      7.587278968     24.803893320 5
     7.416657799      7.586888147     24.846677426 5
    10.392264983      7.584860786     24.822658279 5
     1.476921268      0.801592076     27.355005484 5
     4.449344761      0.798243924     27.356672030 5
     7.418730909      0.800545692     27.374283347 5
    10.389840316      0.805075873     27.361081254 5
    -0.007647526      3.369757502     27.342349473 5
     2.968392127      3.375248867     27.329898646 5
     5.936086711      3.372626163     27.364710204 5
     8.901553261      3.374230045     27.380525891 5
     1.479220386      5.949717037     27.333049119 5
     4.446842497      5.948031425     27.353455122 5
     7.418490599      5.941501807     27.379879668 5
    10.395782875      5.940488139     27.368073537 5
     0.003842814      8.511018974     27.358249475 5
     2.959115547      8.517359257     27.360992818 5
     5.929231605      8.516671698     27.375366580 5
     8.903965951      8.514425051     27.366595964 5
    -0.008464259      1.705628938     29.845688357 3
     2.965279866      1.705989288     29.810780294 3
     5.936896002      1.700519498     29.848527064 3
     8.906097160      1.696933097     29.862334177 3
     1.477970425      4.289259413     29.792364721 3
     4.450344141      4.277746287     29.828880769 3
     7.419475023      4.265262079     29.876043906 3
    10.387116766      4.269823802     29.851636655 3
    -0.009828861      6.843514348     29.845613890 3
     2.969285751      6.849435928     29.835362284 3
     5.935959925      6.843337262     29.859812595 3
     8.901409597      6.835741964     29.863404341 3
     1.474835040      9.421341850     29.849829879 3
     4.456916615      9.418180925     29.843319487 3
     7.420690388      9.410584147     29.863243028 3
    10.376502762      9.409451307     29.815982994 3
    -0.083976694      0.072467012     32.418182834 3
     2.971629749      0.120789716     32.425559284 3
     5.929729075      0.129758788     32.527077111 3
     8.867651230      0.114154633     32.538199322 3
     1.507843972      2.739203060     32.392899071 3
     4.465137667      2.704904833     32.475316150 3
     7.419802457      2.682665112     32.541637929 3
    10.395375607      2.690153716     32.499933285 3
    -0.026017658      5.261439381     32.486674937 3
     2.982359324      5.286260535     32.480049998 3
     5.944085986      5.269143976     32.517086199 3
     8.894745919      5.249677308     32.538919543 3
     1.463600495      7.826930594     32.466667100 3
     4.440182854      7.851677632     32.513820097 3
     7.398606602      7.834790341     32.523566138 3
    10.356375565      7.811076900     32.528098137 3
     0.344997855      1.120073308     35.290678428 2
     0.951269909      1.733639902     35.253983869 1
    -0.375164011      1.580858044     35.034694154 1
%endblock AtomicCoordinatesAndAtomicSpecies
%block DM.InitSpin
%endblock DM.InitSpin
DM.UseSaveDM	True
#KPoint grid
%block kgrid_Monkhorst_Pack
     1       0       0  0.0
     0       1       0  0.0
     0       0       1  0.0
%endblock kgrid_Monkhorst_Pack
