SystemName	geometry-15
SystemLabel	geometry-15
DM.MixingWeight	0.03
DM.NumberPulay	3
DM.Tolerance	1.d-4
DM.UseSaveDM	F
ElectronicTemperature	50 meV
MD.MaxForceTol	0.04 eV/Ang
MD.Steps	0
MD.TypeOfRun	CG
MD.UseSaveXV	F
MaxSCFIterations	500
MinSCFIterations	0
SCF.MustConverge	T
SaveDeltaRho	F
SaveElectrostaticPotential	F
SaveHS	F
SaveRho	F
SaveTotalPotential	F
SolutionMethod	diagon
Spin	non-polarized
Spin.Total	0
UseSaveData	F
WriteCoorStep	F
WriteCoorXmol	F
WriteEigenvalues	T
WriteForces	T
WriteHirshfeldPop	F
WriteKbands	F
WriteKpoints	F
WriteMDXmol	T
WriteMDhistory	F
WriteMullikenPop	0
WriteVoronoiPop	F
WriteWaveFunctions	F
SCFMustConverge	True
Spin     	non-polarized
XC.functional	GGA
XC.authors	PBE
MeshCutoff	9523.985108528535	eV
PAO.EnergyShift	0.1	eV
NumberOfSpecies	5
NumberOfAtoms	67
%block ChemicalSpecieslabel
    1 1 H.1
    2 8 O.2
    3 79 Au.gga.3
    4 79 Au.gga.4
    5 79 Au.gga.5
%endblock ChemicalSpecieslabel
%block PAO.Basis
H.1 2 0.46527
            n=1 0 2 E 99.93138 2.59932
            4.20357 1.84463
            n=2 1 1 E 24.56504 2.20231
            3.52816
O.2 3 -0.24233
            n=2 0 2 E 23.36061 3.39721
            4.50769 2.64066
            n=2 1 2 E 2.78334 5.14253
            6.14996 2.59356
            n=3 2 1 E 63.98188 0.16104
            3.54403
Au.gga.4 2
            n=6 0 2 P 1
            7.24700 5.71500
            n=5 2 2
            5.10700 2.83800
Au.gga.5 2
            n=6 0 2 P 1
            9.07500 5.78700
            n=5 2 2
            6.55700 2.87400
%endblock PAO.Basis
%block PAO.BasisSizes
    Au.gga.3	DZP
%endblock PAO.BasisSizes
LatticeConstant	1.0 Ang
%block LatticeVectors
    11.975725345373620     0.000000000000000     0.000000000000000
    0.000000000000000     10.371282377926580     0.000000000000000
    0.000000000000000     0.000000000000000     57.333623994331909
%endblock LatticeVectors
AtomicCoordinatesFormat  Ang
%block AtomicCoordinatesAndAtomicSpecies
     0.014801925     -0.064112751     24.812324028 5
     2.970021239     -0.074420794     24.841392752 5
     5.935943102     -0.083780093     24.862103672 5
     8.918720537     -0.064586236     24.865418022 5
     1.497661594      2.491797573     24.808982268 5
     4.456512537      2.496491474     24.839680544 5
     7.433272770      2.498790529     24.887345433 5
    10.402615974      2.492979425     24.828936657 5
     0.018447303      5.063556731     24.878626861 5
     2.972060469      5.073622938     24.838839128 5
     5.944260233      5.071340535     24.855729544 5
     8.911094998      5.070065511     24.967986272 5
     1.517313116      7.648656980     24.889787407 5
     4.462368258      7.650960534     24.827877922 5
     7.406305245      7.651739343     24.962473228 5
    10.396057243      7.647926750     24.919553727 5
     1.500452098      0.818617958     27.417401341 5
     4.449159898      0.817555485     27.398918635 5
     7.413997682      0.824866669     27.409953910 5
    10.394551932      0.830412171     27.376760675 5
     0.008450576      3.372567442     27.379207754 5
     2.962231466      3.384585726     27.361776762 5
     5.937231820      3.384306289     27.379760430 5
     8.903219720      3.387263969     27.462001345 5
     1.504006512      5.959728905     27.402762910 5
     4.439825798      5.988911983     27.347081185 5
     7.419300871      5.973475875     27.452522575 5
    10.402646397      5.947031767     27.433496274 5
     0.053388711      8.554898014     27.348312829 5
     2.955301267      8.558315359     27.461629880 5
     5.895411925      8.556315715     27.473440542 5
     8.910602284      8.549026279     27.413597561 5
    -0.004817984      1.712070975     29.869534412 3
     2.948979892      1.719356061     29.904399894 3
     5.944542063      1.708101294     29.860877886 3
     8.920937284      1.684101098     29.916215494 3
     1.469673193      4.279837409     29.864334633 3
     4.449888028      4.305669416     29.780242228 3
     7.406019504      4.261137010     29.928999583 3
    10.373719294      4.250067539     29.927266732 3
    -0.012192239      6.848356004     29.818920906 3
     2.987060751      6.860749428     29.865832945 3
     5.949349931      6.830334100     29.897050841 3
     8.904317824      6.819216237     29.917930988 3
     1.441496029      9.449106277     30.005731846 3
     4.426819572      9.460635363     29.944867728 3
     7.459120172      9.393797090     29.890329374 3
    10.396072501      9.392319384     29.784564312 3
    -0.293706584     -0.053721037     32.298598773 3
     3.240653694      0.055173310     32.523828448 3
     6.042220932      0.019474246     32.417337687 3
     8.748526000      0.088243663     32.841454056 3
     1.464435877      2.874623553     32.356845725 3
     4.479707415      2.714700122     32.345558439 3
     7.385640271      2.635504585     32.555089663 3
    10.305471631      2.641107924     32.692993098 3
    -0.125374625      5.218475899     32.469133095 3
     3.011329342      5.300264667     32.463647439 3
     5.947500576      5.228542982     32.576701327 3
     8.827961124      5.161672864     32.653672323 3
     1.413469063      7.748630918     32.390474478 3
     4.438829176      7.766454692     32.516248518 3
     7.425984356      7.766080779     32.587541945 3
    10.319722092      7.677889059     32.588475926 3
     1.685409741      1.077718721     33.780024260 2
     1.934828906      1.299074806     34.656934735 1
    -1.030554152      1.080639421     33.572971979 1
%endblock AtomicCoordinatesAndAtomicSpecies
%block DM.InitSpin
%endblock DM.InitSpin
DM.UseSaveDM	True
#KPoint grid
%block kgrid_Monkhorst_Pack
     1       0       0  0.0
     0       1       0  0.0
     0       0       1  0.0
%endblock kgrid_Monkhorst_Pack
