SystemName	geometry-21
SystemLabel	geometry-21
DM.MixingWeight	0.03
DM.NumberPulay	3
DM.Tolerance	1.d-4
DM.UseSaveDM	F
ElectronicTemperature	50 meV
MD.MaxForceTol	0.04 eV/Ang
MD.Steps	0
MD.TypeOfRun	CG
MD.UseSaveXV	F
MaxSCFIterations	500
MinSCFIterations	0
SCF.MustConverge	T
SaveDeltaRho	F
SaveElectrostaticPotential	F
SaveHS	F
SaveRho	F
SaveTotalPotential	F
SolutionMethod	diagon
Spin	non-polarized
Spin.Total	0
UseSaveData	F
WriteCoorStep	F
WriteCoorXmol	F
WriteEigenvalues	T
WriteForces	T
WriteHirshfeldPop	F
WriteKbands	F
WriteKpoints	F
WriteMDXmol	T
WriteMDhistory	F
WriteMullikenPop	0
WriteVoronoiPop	F
WriteWaveFunctions	F
SCFMustConverge	True
Spin     	non-polarized
XC.functional	GGA
XC.authors	PBE
MeshCutoff	9523.985108528535	eV
PAO.EnergyShift	0.1	eV
NumberOfSpecies	5
NumberOfAtoms	67
%block ChemicalSpecieslabel
    1 1 H.1
    2 8 O.2
    3 79 Au.gga.3
    4 79 Au.gga.4
    5 79 Au.gga.5
%endblock ChemicalSpecieslabel
%block PAO.Basis
H.1 2 0.46527
            n=1 0 2 E 99.93138 2.59932
            4.20357 1.84463
            n=2 1 1 E 24.56504 2.20231
            3.52816
O.2 3 -0.24233
            n=2 0 2 E 23.36061 3.39721
            4.50769 2.64066
            n=2 1 2 E 2.78334 5.14253
            6.14996 2.59356
            n=3 2 1 E 63.98188 0.16104
            3.54403
Au.gga.4 2
            n=6 0 2 P 1
            7.24700 5.71500
            n=5 2 2
            5.10700 2.83800
Au.gga.5 2
            n=6 0 2 P 1
            9.07500 5.78700
            n=5 2 2
            6.55700 2.87400
%endblock PAO.Basis
%block PAO.BasisSizes
    Au.gga.3	DZP
%endblock PAO.BasisSizes
LatticeConstant	1.0 Ang
%block LatticeVectors
    11.975725345373620     0.000000000000000     0.000000000000000
    0.000000000000000     10.371282377926580     0.000000000000000
    0.000000000000000     0.000000000000000     57.333623994331909
%endblock LatticeVectors
AtomicCoordinatesFormat  Ang
%block AtomicCoordinatesAndAtomicSpecies
     0.021144081     -0.059228075     24.808501143 5
     2.971680540     -0.067920925     24.845348379 5
     5.939649391     -0.077320790     24.859281804 5
     8.922327358     -0.058935519     24.854944458 5
     1.500544713      2.497757358     24.816414357 5
     4.461518527      2.503450792     24.841215363 5
     7.437534432      2.503805812     24.886572140 5
    10.407838914      2.498672913     24.830905112 5
     0.024368968      5.070024696     24.882506383 5
     2.974806631      5.079233569     24.848133087 5
     5.948655097      5.077020939     24.859974776 5
     8.915330891      5.078072269     24.973791389 5
     1.520877696      7.654361262     24.887720024 5
     4.467703713      7.656821298     24.832743602 5
     7.411599763      7.658216129     24.960224101 5
    10.402700038      7.654354280     24.914061030 5
     1.503245493      0.824945031     27.427325294 5
     4.453737344      0.822500710     27.395027248 5
     7.420139171      0.828596560     27.407301495 5
    10.402966860      0.831275510     27.368386604 5
     0.014739960      3.378376547     27.388710594 5
     2.966090814      3.388560447     27.367276754 5
     5.942785628      3.388290050     27.382108563 5
     8.909713148      3.390049376     27.454508300 5
     1.509792775      5.966863468     27.409654050 5
     4.442614631      5.992499530     27.349510730 5
     7.424407520      5.980589399     27.452480211 5
    10.411138418      5.952395926     27.431965148 5
     0.058693055      8.559007009     27.346464197 5
     2.959546097      8.561653307     27.463245395 5
     5.898842978      8.562654100     27.469634541 5
     8.916072181      8.555953265     27.407493921 5
    -0.000549725      1.714497736     29.877529461 3
     2.955353266      1.723061649     29.908385343 3
     5.949349556      1.711290684     29.861378370 3
     8.922786242      1.688101935     29.905487511 3
     1.476536352      4.280359265     29.875545481 3
     4.456860820      4.310018115     29.781591747 3
     7.413127990      4.262401469     29.924237704 3
    10.378047768      4.254392994     29.924440054 3
    -0.006443732      6.851414099     29.818497654 3
     2.992228397      6.865054108     29.869988756 3
     5.956246630      6.832390794     29.893985169 3
     8.910095474      6.824461220     29.913632556 3
     1.445181995      9.454884245     30.012468897 3
     4.432105207      9.465016325     29.940500525 3
     7.464235974      9.394989881     29.886736142 3
    10.398908723      9.396771617     29.778104484 3
    -0.315913399     -0.062383370     32.292304332 3
     3.268018870      0.054849446     32.515326775 3
     6.060062984      0.017026945     32.404257527 3
     8.743633530      0.099736835     32.903267609 3
     1.469452820      2.865500565     32.381153756 3
     4.473219230      2.722424917     32.351313027 3
     7.383295083      2.636172656     32.557355047 3
    10.321408483      2.646127794     32.645883737 3
    -0.114116120      5.215311508     32.471995875 3
     3.009407472      5.294511160     32.467684657 3
     5.954415757      5.229204019     32.578406487 3
     8.830107470      5.165760514     32.646308578 3
     1.420481971      7.746674587     32.384654497 3
     4.443154650      7.756492678     32.511020720 3
     7.433660105      7.771380020     32.588695336 3
    10.328190903      7.669028180     32.579501941 3
     1.633435914      1.001072293     33.741485950 2
     1.862383566      1.200355489     34.636928896 1
    -1.139954728      1.044682164     33.561973087 1
%endblock AtomicCoordinatesAndAtomicSpecies
%block DM.InitSpin
%endblock DM.InitSpin
DM.UseSaveDM	True
#KPoint grid
%block kgrid_Monkhorst_Pack
     1       0       0  0.0
     0       1       0  0.0
     0       0       1  0.0
%endblock kgrid_Monkhorst_Pack
