SystemName	geometry-17
SystemLabel	geometry-17
DM.MixingWeight	0.03
DM.NumberPulay	3
DM.Tolerance	1.d-4
DM.UseSaveDM	F
ElectronicTemperature	50 meV
MD.MaxForceTol	0.04 eV/Ang
MD.Steps	0
MD.TypeOfRun	CG
MD.UseSaveXV	F
MaxSCFIterations	500
MinSCFIterations	0
SCF.MustConverge	T
SaveDeltaRho	F
SaveElectrostaticPotential	F
SaveHS	F
SaveRho	F
SaveTotalPotential	F
SolutionMethod	diagon
Spin	non-polarized
Spin.Total	0
UseSaveData	F
WriteCoorStep	F
WriteCoorXmol	F
WriteEigenvalues	T
WriteForces	T
WriteHirshfeldPop	F
WriteKbands	F
WriteKpoints	F
WriteMDXmol	T
WriteMDhistory	F
WriteMullikenPop	0
WriteVoronoiPop	F
WriteWaveFunctions	F
SCFMustConverge	True
Spin     	non-polarized
XC.functional	GGA
XC.authors	PBE
MeshCutoff	9523.985108528535	eV
PAO.EnergyShift	0.1	eV
NumberOfSpecies	5
NumberOfAtoms	67
%block ChemicalSpecieslabel
    1 1 H.1
    2 8 O.2
    3 79 Au.gga.3
    4 79 Au.gga.4
    5 79 Au.gga.5
%endblock ChemicalSpecieslabel
%block PAO.Basis
H.1 2 0.46527
            n=1 0 2 E 99.93138 2.59932
            4.20357 1.84463
            n=2 1 1 E 24.56504 2.20231
            3.52816
O.2 3 -0.24233
            n=2 0 2 E 23.36061 3.39721
            4.50769 2.64066
            n=2 1 2 E 2.78334 5.14253
            6.14996 2.59356
            n=3 2 1 E 63.98188 0.16104
            3.54403
Au.gga.4 2
            n=6 0 2 P 1
            7.24700 5.71500
            n=5 2 2
            5.10700 2.83800
Au.gga.5 2
            n=6 0 2 P 1
            9.07500 5.78700
            n=5 2 2
            6.55700 2.87400
%endblock PAO.Basis
%block PAO.BasisSizes
    Au.gga.3	DZP
%endblock PAO.BasisSizes
LatticeConstant	1.0 Ang
%block LatticeVectors
    11.975725345373620     0.000000000000000     0.000000000000000
    0.000000000000000     10.371282377926580     0.000000000000000
    0.000000000000000     0.000000000000000     57.333623994331909
%endblock LatticeVectors
AtomicCoordinatesFormat  Ang
%block AtomicCoordinatesAndAtomicSpecies
     0.033158502     -0.049795725     24.801762606 5
     2.975063600     -0.055630542     24.852604604 5
     5.946772968     -0.065177607     24.853989562 5
     8.929244078     -0.048208986     24.835212714 5
     1.506100138      2.509002643     24.830336786 5
     4.471315326      2.516516540     24.844096818 5
     7.445698392      2.513402536     24.884849150 5
    10.417811288      2.509414800     24.834162528 5
     0.035535237      5.082039660     24.889887047 5
     2.980366763      5.089742938     24.866091038 5
     5.957346417      5.087729806     24.867798010 5
     8.923411425      5.093211671     24.983960314 5
     1.527788802      7.665222803     24.884344804 5
     4.478156509      7.667850606     24.841898973 5
     7.421861308      7.670432680     24.955596207 5
    10.415234659      7.666571876     24.903987531 5
     1.508752353      0.836888071     27.446450604 5
     4.462568049      0.832044094     27.387824738 5
     7.431901545      0.835807515     27.402006518 5
    10.419248849      0.833089344     27.353339244 5
     0.027036439      3.389140407     27.406689946 5
     2.973997267      3.395844052     27.377618223 5
     5.953562272      3.395919511     27.386927212 5
     8.922235838      3.395396684     27.439917358 5
     1.520731121      5.980073719     27.422481659 5
     4.448304291      5.999085422     27.354248660 5
     7.434543512      5.994258182     27.452189050 5
    10.427336868      5.962526973     27.428682206 5
     0.068865556      8.567189201     27.343222214 5
     2.967951053      8.568115757     27.465588030 5
     5.905874491      8.574384263     27.462248813 5
     8.926849509      8.569197202     27.396437294 5
     0.007878336      1.719440759     29.894694608 3
     2.967664637      1.729667109     29.916474725 3
     5.958858281      1.717220283     29.862704151 3
     8.926684141      1.695773282     29.884967852 3
     1.490252906      4.281517729     29.895851341 3
     4.470443150      4.318280824     29.784758220 3
     7.427158100      4.264978212     29.915189622 3
    10.386872623      4.262853189     29.918183798 3
     0.004621717      6.857489611     29.817607592 3
     3.002478998      6.873696758     29.877074242 3
     5.969500736      6.836223070     29.888512794 3
     8.921228920      6.834394756     29.905616477 3
     1.452664899      9.465665801     30.025601193 3
     4.442411555      9.473205750     29.931573341 3
     7.474049885      9.397302313     29.879833543 3
    10.404972954      9.405603337     29.766996254 3
    -0.359338392     -0.079852839     32.283804050 3
     3.316855471      0.055173914     32.500486320 3
     6.091959250      0.013064811     32.379612896 3
     8.732817918      0.120332798     33.020452404 3
     1.482515724      2.851690391     32.426233340 3
     4.462311159      2.736359399     32.363312413 3
     7.381141230      2.637207268     32.560782093 3
    10.353534526      2.650221716     32.563227673 3
    -0.093875203      5.208071903     32.477742207 3
     3.008270425      5.285545594     32.474761529 3
     5.968948563      5.229766534     32.581832391 3
     8.834935939      5.172137502     32.633865987 3
     1.433306361      7.742508455     32.373516293 3
     4.451207867      7.739363665     32.502030784 3
     7.447595150      7.780968899     32.590583915 3
    10.343766977      7.651135096     32.562027810 3
     1.603456989      0.860078054     33.664718268 2
     1.715014285      0.971325593     34.597407672 1
    -1.345634314      0.980642994     33.535218743 1
%endblock AtomicCoordinatesAndAtomicSpecies
%block DM.InitSpin
%endblock DM.InitSpin
DM.UseSaveDM	True
#KPoint grid
%block kgrid_Monkhorst_Pack
     1       0       0  0.0
     0       1       0  0.0
     0       0       1  0.0
%endblock kgrid_Monkhorst_Pack
