SystemName	geometry-2
SystemLabel	geometry-2
DM.MixingWeight	0.03
DM.NumberPulay	3
DM.Tolerance	1.d-4
DM.UseSaveDM	F
ElectronicTemperature	50 meV
MD.MaxForceTol	0.04 eV/Ang
MD.Steps	0
MD.TypeOfRun	CG
MD.UseSaveXV	F
MaxSCFIterations	500
MinSCFIterations	0
SCF.MustConverge	T
SaveDeltaRho	F
SaveElectrostaticPotential	F
SaveHS	F
SaveRho	F
SaveTotalPotential	F
SolutionMethod	diagon
Spin	non-polarized
Spin.Total	0
UseSaveData	F
WriteCoorStep	F
WriteCoorXmol	F
WriteEigenvalues	T
WriteForces	T
WriteHirshfeldPop	F
WriteKbands	F
WriteKpoints	F
WriteMDXmol	T
WriteMDhistory	F
WriteMullikenPop	0
WriteVoronoiPop	F
WriteWaveFunctions	F
SCFMustConverge	True
Spin     	non-polarized
XC.functional	GGA
XC.authors	PBE
MeshCutoff	9523.985108528535	eV
PAO.EnergyShift	0.1	eV
NumberOfSpecies	5
NumberOfAtoms	67
%block ChemicalSpecieslabel
    1 1 H.1
    2 8 O.2
    3 79 Au.gga.3
    4 79 Au.gga.4
    5 79 Au.gga.5
%endblock ChemicalSpecieslabel
%block PAO.Basis
H.1 2 0.46527
            n=1 0 2 E 99.93138 2.59932
            4.20357 1.84463
            n=2 1 1 E 24.56504 2.20231
            3.52816
O.2 3 -0.24233
            n=2 0 2 E 23.36061 3.39721
            4.50769 2.64066
            n=2 1 2 E 2.78334 5.14253
            6.14996 2.59356
            n=3 2 1 E 63.98188 0.16104
            3.54403
Au.gga.4 2
            n=6 0 2 P 1
            7.24700 5.71500
            n=5 2 2
            5.10700 2.83800
Au.gga.5 2
            n=6 0 2 P 1
            9.07500 5.78700
            n=5 2 2
            6.55700 2.87400
%endblock PAO.Basis
%block PAO.BasisSizes
    Au.gga.3	DZP
%endblock PAO.BasisSizes
LatticeConstant	1.0 Ang
%block LatticeVectors
    11.975725345373620     0.000000000000000     0.000000000000000
    0.000000000000000     10.371282377926580     0.000000000000000
    0.000000000000000     0.000000000000000     57.333623994331909
%endblock LatticeVectors
AtomicCoordinatesFormat  Ang
%block AtomicCoordinatesAndAtomicSpecies
    -0.002358084     -0.120792580     24.821123215 5
     2.962978171     -0.125001551     24.804915119 5
     5.927805721     -0.124170208     24.837219832 5
     8.902732030     -0.120088522     24.848453862 5
     1.479784851      2.448395597     24.800677759 5
     4.449460029      2.448606577     24.807587304 5
     7.420377592      2.447981598     24.854368167 5
    10.387940687      2.452189104     24.818052448 5
    -0.004808830      5.023589823     24.799906641 5
     2.962994209      5.024627960     24.774895831 5
     5.928596013      5.022922342     24.836032960 5
     8.906738766      5.019080339     24.862267298 5
     1.482296091      7.593837554     24.798735517 5
     4.443971221      7.594705627     24.794734859 5
     7.408989172      7.594005139     24.875483217 5
    10.388772660      7.591985161     24.835881934 5
     1.472736963      0.801949817     27.352635077 5
     4.444613813      0.797568091     27.361994344 5
     7.413482714      0.801975811     27.393503565 5
    10.384051991      0.809227282     27.364650546 5
    -0.013621890      3.368223753     27.336329122 5
     2.967093535      3.377206813     27.317058715 5
     5.933001700      3.374196605     27.370079627 5
     8.895111503      3.375899163     27.411617851 5
     1.477082779      5.956246084     27.322147979 5
     4.441823852      5.952549541     27.353276929 5
     7.412112722      5.940600475     27.403334994 5
    10.394077552      5.939711013     27.386695059 5
     0.007983807      8.510130107     27.351766224 5
     2.953872514      8.519782568     27.364999479 5
     5.920110230      8.517349199     27.395912503 5
     8.895921878      8.513983302     27.376089272 5
    -0.015321559      1.702131180     29.842450625 3
     2.960157489      1.702198082     29.797626058 3
     5.934879630      1.697289584     29.853188941 3
     8.904677985      1.685572543     29.891395936 3
     1.473078274      4.295859387     29.759689285 3
     4.447063381      4.277172997     29.819470470 3
     7.414537418      4.253950145     29.908016214 3
    10.380398149      4.259812224     29.869526427 3
    -0.018268350      6.840014980     29.846510018 3
     2.968305672      6.849050121     29.834624706 3
     5.932879625      6.835877556     29.879207560 3
     8.895620225      6.822629194     29.888374068 3
     1.466201410      9.417381140     29.854164087 3
     4.457069500      9.415312194     29.851280223 3
     7.418982690      9.400435678     29.886683519 3
    10.362437467      9.395321316     29.789633323 3
    -0.158825987      0.020968737     32.353610304 3
     2.971641232      0.105548628     32.385299910 3
     5.920402584      0.117429323     32.542869082 3
     8.830535783      0.090841745     32.589841014 3
     1.524560223      2.767547029     32.311754148 3
     4.474269035      2.697410166     32.455589571 3
     7.419995656      2.656401209     32.578400418 3
    10.400571169      2.661305900     32.528019002 3
    -0.052183335      5.241883526     32.479377324 3
     2.996171254      5.290250330     32.468768443 3
     5.949044405      5.251970985     32.539704008 3
     8.882154105      5.215988716     32.583175736 3
     1.440768106      7.804377327     32.446007321 3
     4.425296508      7.846663764     32.528331925 3
     7.378455144      7.812262389     32.545681769 3
    10.325418826      7.773756599     32.561626490 3
     0.654960889      1.190805026     35.017712178 2
     1.125119922      1.827856734     35.244601665 1
    -0.057983394      1.549692667     34.796037243 1
%endblock AtomicCoordinatesAndAtomicSpecies
%block DM.InitSpin
%endblock DM.InitSpin
DM.UseSaveDM	True
#KPoint grid
%block kgrid_Monkhorst_Pack
     1       0       0  0.0
     0       1       0  0.0
     0       0       1  0.0
%endblock kgrid_Monkhorst_Pack
