SystemName	geometry-23
SystemLabel	geometry-23
DM.MixingWeight	0.03
DM.NumberPulay	3
DM.Tolerance	1.d-4
DM.UseSaveDM	F
ElectronicTemperature	50 meV
MD.MaxForceTol	0.04 eV/Ang
MD.Steps	0
MD.TypeOfRun	CG
MD.UseSaveXV	F
MaxSCFIterations	500
MinSCFIterations	0
SCF.MustConverge	T
SaveDeltaRho	F
SaveElectrostaticPotential	F
SaveHS	F
SaveRho	F
SaveTotalPotential	F
SolutionMethod	diagon
Spin	non-polarized
Spin.Total	0
UseSaveData	F
WriteCoorStep	F
WriteCoorXmol	F
WriteEigenvalues	T
WriteForces	T
WriteHirshfeldPop	F
WriteKbands	F
WriteKpoints	F
WriteMDXmol	T
WriteMDhistory	F
WriteMullikenPop	0
WriteVoronoiPop	F
WriteWaveFunctions	F
SCFMustConverge	True
Spin     	non-polarized
XC.functional	GGA
XC.authors	PBE
MeshCutoff	9523.985108528535	eV
PAO.EnergyShift	0.1	eV
NumberOfSpecies	5
NumberOfAtoms	67
%block ChemicalSpecieslabel
    1 1 H.1
    2 8 O.2
    3 79 Au.gga.3
    4 79 Au.gga.4
    5 79 Au.gga.5
%endblock ChemicalSpecieslabel
%block PAO.Basis
H.1 2 0.46527
            n=1 0 2 E 99.93138 2.59932
            4.20357 1.84463
            n=2 1 1 E 24.56504 2.20231
            3.52816
O.2 3 -0.24233
            n=2 0 2 E 23.36061 3.39721
            4.50769 2.64066
            n=2 1 2 E 2.78334 5.14253
            6.14996 2.59356
            n=3 2 1 E 63.98188 0.16104
            3.54403
Au.gga.4 2
            n=6 0 2 P 1
            7.24700 5.71500
            n=5 2 2
            5.10700 2.83800
Au.gga.5 2
            n=6 0 2 P 1
            9.07500 5.78700
            n=5 2 2
            6.55700 2.87400
%endblock PAO.Basis
%block PAO.BasisSizes
    Au.gga.3	DZP
%endblock PAO.BasisSizes
LatticeConstant	1.0 Ang
%block LatticeVectors
    11.975725345373620     0.000000000000000     0.000000000000000
    0.000000000000000     10.371282377926580     0.000000000000000
    0.000000000000000     0.000000000000000     57.333623994331909
%endblock LatticeVectors
AtomicCoordinatesFormat  Ang
%block AtomicCoordinatesAndAtomicSpecies
     0.000733230     -0.074594943     24.821904941 5
     2.966848391     -0.088918857     24.832011260 5
     5.927920802     -0.098318236     24.868498434 5
     8.910873407     -0.077103645     24.888884201 5
     1.491438635      2.478463866     24.792170464 5
     4.446104585      2.480778589     24.836154757 5
     7.424011136      2.487840904     24.888549725 5
    10.391187827      2.480254268     24.823555103 5
     0.005172882      5.048692922     24.869968867 5
     2.966748483      5.060897544     24.818842471 5
     5.935284192      5.058605609     24.845871755 5
     8.901826681      5.052222005     24.953262607 5
     1.509700318      7.636093696     24.895316708 5
     4.451264812      7.637759740     24.816845794 5
     7.395067965      7.637215947     24.966621528 5
    10.381222268      7.633725071     24.932322522 5
     1.494659669      0.804498967     27.396014556 5
     4.439350362      0.806958975     27.407844854 5
     7.400667352      0.816897565     27.415309152 5
    10.376639197      0.828875805     27.397073789 5
    -0.004700484      3.359172215     27.358009122 5
     2.955018191      3.375250377     27.349256597 5
     5.925488364      3.375668698     27.375400962 5
     8.889292646      3.381246843     27.477779076 5
     1.491086467      5.943316117     27.386766418 5
     4.434530464      5.980460914     27.342022699 5
     7.408973624      5.958093555     27.452190484 5
    10.384087248      5.935082686     27.436049965 5
     0.041857680      8.546583831     27.352939705 5
     2.946682693      8.551169532     27.456272684 5
     5.888999458      8.541603850     27.481421430 5
     8.899340021      8.533896341     27.428185203 5
    -0.013567262      1.707424045     29.856238741 3
     2.935407576      1.710182770     29.896445165 3
     5.934765426      1.700755355     29.860619225 3
     8.917676089      1.675388267     29.939632146 3
     1.456056669      4.279140292     29.837029726 3
     4.435269438      4.296039541     29.778636382 3
     7.391538032      4.258650862     29.939629431 3
    10.365502893      4.241049705     29.931506838 3
    -0.024582798      6.842176691     29.819731817 3
     2.976605306      6.852281536     29.854827491 3
     5.934462134      6.825609539     29.904656044 3
     8.891902527      6.807536476     29.927810458 3
     1.434453587      9.435869440     29.991330107 3
     4.415854273      9.450582595     29.952911137 3
     7.447976403      9.391225199     29.898208430 3
    10.391158935      9.383268653     29.801179030 3
    -0.247792373     -0.037079740     32.319783875 3
     3.172888303      0.057979471     32.544830273 3
     5.998222546      0.026521546     32.446949072 3
     8.755867157      0.060085849     32.704743735 3
     1.461462751      2.902405883     32.300321477 3
     4.497156391      2.695986679     32.335389737 3
     7.395966053      2.633391963     32.548468200 3
    10.274773870      2.617894587     32.811503475 3
    -0.152669945      5.222644558     32.463494043 3
     3.021168880      5.317262185     32.453396730 3
     5.935416447      5.225497839     32.573427552 3
     8.824944652      5.149518785     32.673412050 3
     1.396859167      7.751919646     32.403084314 3
     4.428824973      7.792485157     32.529949647 3
     7.407431627      7.753329436     32.584385591 3
    10.299775294      7.695007581     32.607426913 3
     1.734946094      1.257058321     33.857990131 2
     2.071857020      1.574217308     34.718706585 1
    -0.780861258      1.170034961     33.585479521 1
%endblock AtomicCoordinatesAndAtomicSpecies
%block DM.InitSpin
%endblock DM.InitSpin
DM.UseSaveDM	True
#KPoint grid
%block kgrid_Monkhorst_Pack
     1       0       0  0.0
     0       1       0  0.0
     0       0       1  0.0
%endblock kgrid_Monkhorst_Pack
