SystemName	geometry-14
SystemLabel	geometry-14
DM.MixingWeight	0.03
DM.NumberPulay	3
DM.Tolerance	1.d-4
DM.UseSaveDM	F
ElectronicTemperature	50 meV
MD.MaxForceTol	0.04 eV/Ang
MD.Steps	0
MD.TypeOfRun	CG
MD.UseSaveXV	F
MaxSCFIterations	500
MinSCFIterations	0
SCF.MustConverge	T
SaveDeltaRho	F
SaveElectrostaticPotential	F
SaveHS	F
SaveRho	F
SaveTotalPotential	F
SolutionMethod	diagon
Spin	non-polarized
Spin.Total	0
UseSaveData	F
WriteCoorStep	F
WriteCoorXmol	F
WriteEigenvalues	T
WriteForces	T
WriteHirshfeldPop	F
WriteKbands	F
WriteKpoints	F
WriteMDXmol	T
WriteMDhistory	F
WriteMullikenPop	0
WriteVoronoiPop	F
WriteWaveFunctions	F
SCFMustConverge	True
Spin     	non-polarized
XC.functional	GGA
XC.authors	PBE
MeshCutoff	9523.985108528535	eV
PAO.EnergyShift	0.1	eV
NumberOfSpecies	5
NumberOfAtoms	67
%block ChemicalSpecieslabel
    1 1 H.1
    2 8 O.2
    3 79 Au.gga.3
    4 79 Au.gga.4
    5 79 Au.gga.5
%endblock ChemicalSpecieslabel
%block PAO.Basis
H.1 2 0.46527
            n=1 0 2 E 99.93138 2.59932
            4.20357 1.84463
            n=2 1 1 E 24.56504 2.20231
            3.52816
O.2 3 -0.24233
            n=2 0 2 E 23.36061 3.39721
            4.50769 2.64066
            n=2 1 2 E 2.78334 5.14253
            6.14996 2.59356
            n=3 2 1 E 63.98188 0.16104
            3.54403
Au.gga.4 2
            n=6 0 2 P 1
            7.24700 5.71500
            n=5 2 2
            5.10700 2.83800
Au.gga.5 2
            n=6 0 2 P 1
            9.07500 5.78700
            n=5 2 2
            6.55700 2.87400
%endblock PAO.Basis
%block PAO.BasisSizes
    Au.gga.3	DZP
%endblock PAO.BasisSizes
LatticeConstant	1.0 Ang
%block LatticeVectors
    11.975725345373620     0.000000000000000     0.000000000000000
    0.000000000000000     10.371282377926580     0.000000000000000
    0.000000000000000     0.000000000000000     57.333623994331909
%endblock LatticeVectors
AtomicCoordinatesFormat  Ang
%block AtomicCoordinatesAndAtomicSpecies
    -0.007149930     -0.086557026     24.833601672 5
     2.964869069     -0.103853393     24.805874452 5
     5.919891440     -0.109282462     24.875663155 5
     8.901518824     -0.090686076     24.901341102 5
     1.482575366      2.466844042     24.784429439 5
     4.446569646      2.466419164     24.820648734 5
     7.418656311      2.475457058     24.895687110 5
    10.383187628      2.472077875     24.817622241 5
    -0.008126285      5.037646347     24.840332617 5
     2.967741555      5.047881666     24.781964910 5
     5.929537765      5.046068233     24.844839979 5
     8.898535392      5.037286653     24.925642839 5
     1.496679209      7.622854264     24.856031680 5
     4.444772278      7.620729575     24.789196983 5
     7.392213087      7.619627218     24.954866725 5
    10.374175083      7.618754259     24.913904077 5
     1.480683853      0.797992781     27.370717848 5
     4.435291750      0.801169453     27.399044119 5
     7.397747883      0.811544031     27.426676261 5
    10.372842659      0.827679512     27.408685742 5
    -0.014164519      3.352284281     27.331862761 5
     2.967894166      3.370828162     27.311124550 5
     5.925813353      3.375559905     27.385347862 5
     8.883008563      3.380088743     27.484554695 5
     1.476596924      5.946555711     27.331512324 5
     4.437335232      5.965985940     27.348007896 5
     7.407294234      5.946772180     27.455201954 5
    10.382292885      5.931538347     27.430263796 5
     0.029275389      8.532503213     27.350444909 5
     2.947169935      8.539357940     27.402081777 5
     5.899895396      8.520416322     27.466550256 5
     8.891111985      8.520744383     27.430184747 5
    -0.019945941      1.705230763     29.878975902 3
     2.940394160      1.690328072     29.839101249 3
     5.936374335      1.690170257     29.870196945 3
     8.915909406      1.664149114     29.958836042 3
     1.466649081      4.298791590     29.729887859 3
     4.438622886      4.283304939     29.796998345 3
     7.401783714      4.244171184     29.969384826 3
    10.372865928      4.238892372     29.909440891 3
    -0.033574748      6.839750921     29.832410880 3
     2.976408233      6.856504969     29.825375451 3
     5.928054281      6.817944808     29.926752875 3
     8.885356791      6.793540678     29.947303134 3
     1.445476599      9.414054474     29.932905146 3
     4.437628283      9.424254241     29.904789661 3
     7.430209669      9.382500758     29.924232264 3
    10.370324709      9.374974615     29.788380350 3
    -0.312416721     -0.090680792     32.323951282 3
     2.995403085      0.079720947     32.446689350 3
     5.897122997      0.069421303     32.526672559 3
     8.716577462      0.012305251     32.670750686 3
     1.580074099      2.949982193     32.161673538 3
     4.530363757      2.667092506     32.384745601 3
     7.454757734      2.605037490     32.592236253 3
    10.368086085      2.490400905     32.877874723 3
    -0.168598928      5.184225904     32.465757308 3
     3.078046541      5.352039102     32.431654862 3
     5.971378520      5.201675316     32.589306218 3
     8.849431331      5.107371113     32.723237513 3
     1.373635551      7.740144208     32.399025073 3
     4.401506818      7.854137867     32.570227929 3
     7.349183267      7.739292965     32.587929256 3
    10.255851349      7.669171282     32.626829027 3
     1.458972837      1.433747638     34.015796109 2
     1.699083172      1.830423989     34.897446649 1
     0.078724710      1.420637768     33.748871152 1
%endblock AtomicCoordinatesAndAtomicSpecies
%block DM.InitSpin
%endblock DM.InitSpin
DM.UseSaveDM	True
#KPoint grid
%block kgrid_Monkhorst_Pack
     1       0       0  0.0
     0       1       0  0.0
     0       0       1  0.0
%endblock kgrid_Monkhorst_Pack
