SystemName	geometry-3
SystemLabel	geometry-3
DM.MixingWeight	0.03
DM.NumberPulay	3
DM.Tolerance	1.d-4
DM.UseSaveDM	F
ElectronicTemperature	50 meV
MD.MaxForceTol	0.04 eV/Ang
MD.Steps	0
MD.TypeOfRun	CG
MD.UseSaveXV	F
MaxSCFIterations	500
MinSCFIterations	0
SCF.MustConverge	T
SaveDeltaRho	F
SaveElectrostaticPotential	F
SaveHS	F
SaveRho	F
SaveTotalPotential	F
SolutionMethod	diagon
Spin	non-polarized
Spin.Total	0
UseSaveData	F
WriteCoorStep	F
WriteCoorXmol	F
WriteEigenvalues	T
WriteForces	T
WriteHirshfeldPop	F
WriteKbands	F
WriteKpoints	F
WriteMDXmol	T
WriteMDhistory	F
WriteMullikenPop	0
WriteVoronoiPop	F
WriteWaveFunctions	F
SCFMustConverge	True
Spin     	non-polarized
XC.functional	GGA
XC.authors	PBE
MeshCutoff	9523.985108528535	eV
PAO.EnergyShift	0.1	eV
NumberOfSpecies	5
NumberOfAtoms	67
%block ChemicalSpecieslabel
    1 1 H.1
    2 8 O.2
    3 79 Au.gga.3
    4 79 Au.gga.4
    5 79 Au.gga.5
%endblock ChemicalSpecieslabel
%block PAO.Basis
H.1 2 0.46527
            n=1 0 2 E 99.93138 2.59932
            4.20357 1.84463
            n=2 1 1 E 24.56504 2.20231
            3.52816
O.2 3 -0.24233
            n=2 0 2 E 23.36061 3.39721
            4.50769 2.64066
            n=2 1 2 E 2.78334 5.14253
            6.14996 2.59356
            n=3 2 1 E 63.98188 0.16104
            3.54403
Au.gga.4 2
            n=6 0 2 P 1
            7.24700 5.71500
            n=5 2 2
            5.10700 2.83800
Au.gga.5 2
            n=6 0 2 P 1
            9.07500 5.78700
            n=5 2 2
            6.55700 2.87400
%endblock PAO.Basis
%block PAO.BasisSizes
    Au.gga.3	DZP
%endblock PAO.BasisSizes
LatticeConstant	1.0 Ang
%block LatticeVectors
    11.975725345373620     0.000000000000000     0.000000000000000
    0.000000000000000     10.371282377926580     0.000000000000000
    0.000000000000000     0.000000000000000     57.333623994331909
%endblock LatticeVectors
AtomicCoordinatesFormat  Ang
%block AtomicCoordinatesAndAtomicSpecies
    -0.003953582     -0.107993682     24.822402599 5
     2.960759804     -0.116019135     24.801039472 5
     5.921559051     -0.115791140     24.856622811 5
     8.899502631     -0.107630452     24.871665654 5
     1.478159931      2.457303034     24.796324794 5
     4.446787238      2.457777449     24.809378725 5
     7.418741995      2.458514700     24.880838425 5
    10.384536075      2.462966834     24.823413716 5
    -0.007288612      5.033577718     24.810432113 5
     2.962326757      5.036226733     24.764788197 5
     5.924317275      5.033741181     24.845672560 5
     8.903155555      5.027590740     24.898308040 5
     1.484317293      7.605794011     24.803099114 5
     4.440190749      7.605627268     24.785116548 5
     7.399469299      7.604596441     24.914213137 5
    10.383509752      7.602791890     24.859502125 5
     1.469923745      0.801898346     27.353223979 5
     4.438923943      0.797624580     27.372248594 5
     7.406434735      0.804857171     27.416600047 5
    10.377271589      0.815926200     27.374392037 5
    -0.019160035      3.364563475     27.330066266 5
     2.966366704      3.378214588     27.303795076 5
     5.929291229      3.376066839     27.377680630 5
     8.887454003      3.378213999     27.451551459 5
     1.475062891      5.961318497     27.312819705 5
     4.436605069      5.958774510     27.352522146 5
     7.405611001      5.940853152     27.433223491 5
    10.391083212      5.937956796     27.410591128 5
     0.015143958      8.512643871     27.345346381 5
     2.948145628      8.524987161     27.373616253 5
     5.908821231      8.518437839     27.425441588 5
     8.887775627      8.514720794     27.392879275 5
    -0.022354188      1.699391414     29.845609264 3
     2.952750207      1.696734900     29.790832803 3
     5.933461512      1.693179604     29.860292232 3
     8.905092872      1.671697760     29.928623302 3
     1.467996294      4.302820181     29.723445700 3
     4.443093155      4.277575252     29.807581207 3
     7.408469332      4.241691691     29.947508874 3
    10.373264370      4.247430783     29.891883909 3
    -0.028360996      6.836795202     29.845401354 3
     2.968845156      6.850074976     29.832306749 3
     5.929493547      6.826154868     29.904765465 3
     8.888814426      6.805974284     29.920786677 3
     1.455308495      9.413111990     29.869528634 3
     4.454866234      9.413779480     29.865886051 3
     7.419046103      9.388127493     29.914576568 3
    10.350225088      9.379069051     29.764170971 3
    -0.254290954     -0.045429565     32.288197313 3
     2.973915332      0.087642358     32.354813121 3
     5.907499840      0.099139363     32.555834636 3
     8.777705956      0.056969169     32.653006667 3
     1.550603552      2.821866890     32.212029080 3
     4.491460150      2.685752541     32.427400834 3
     7.426152440      2.623604079     32.615799742 3
    10.402712643      2.606871363     32.605705378 3
    -0.093970323      5.214117391     32.470639556 3
     3.022202703      5.303520236     32.452458274 3
     5.957921555      5.227949014     32.568737759 3
     8.865861756      5.167570422     32.646210553 3
     1.409207819      7.773255030     32.419185702 3
     4.407529691      7.843503620     32.548613980 3
     7.354618636      7.780165030     32.572930594 3
    10.285618095      7.722150511     32.602804500 3
     1.061600634      1.273939884     34.611025585 2
     1.365856438      1.914936070     35.149802824 1
     0.251529745      1.502974455     34.416213559 1
%endblock AtomicCoordinatesAndAtomicSpecies
%block DM.InitSpin
%endblock DM.InitSpin
DM.UseSaveDM	True
#KPoint grid
%block kgrid_Monkhorst_Pack
     1       0       0  0.0
     0       1       0  0.0
     0       0       1  0.0
%endblock kgrid_Monkhorst_Pack
