SystemName	geometry-7
SystemLabel	geometry-7
DM.MixingWeight	0.03
DM.NumberPulay	3
DM.Tolerance	1.d-4
DM.UseSaveDM	F
ElectronicTemperature	50 meV
MD.MaxForceTol	0.04 eV/Ang
MD.Steps	0
MD.TypeOfRun	CG
MD.UseSaveXV	F
MaxSCFIterations	500
MinSCFIterations	0
SCF.MustConverge	T
SaveDeltaRho	F
SaveElectrostaticPotential	F
SaveHS	F
SaveRho	F
SaveTotalPotential	F
SolutionMethod	diagon
Spin	non-polarized
Spin.Total	0
UseSaveData	F
WriteCoorStep	F
WriteCoorXmol	F
WriteEigenvalues	T
WriteForces	T
WriteHirshfeldPop	F
WriteKbands	F
WriteKpoints	F
WriteMDXmol	T
WriteMDhistory	F
WriteMullikenPop	0
WriteVoronoiPop	F
WriteWaveFunctions	F
SCFMustConverge	True
Spin     	non-polarized
XC.functional	GGA
XC.authors	PBE
MeshCutoff	9523.985108528535	eV
PAO.EnergyShift	0.1	eV
NumberOfSpecies	5
NumberOfAtoms	67
%block ChemicalSpecieslabel
    1 1 H.1
    2 8 O.2
    3 79 Au.gga.3
    4 79 Au.gga.4
    5 79 Au.gga.5
%endblock ChemicalSpecieslabel
%block PAO.Basis
H.1 2 0.46527
            n=1 0 2 E 99.93138 2.59932
            4.20357 1.84463
            n=2 1 1 E 24.56504 2.20231
            3.52816
O.2 3 -0.24233
            n=2 0 2 E 23.36061 3.39721
            4.50769 2.64066
            n=2 1 2 E 2.78334 5.14253
            6.14996 2.59356
            n=3 2 1 E 63.98188 0.16104
            3.54403
Au.gga.4 2
            n=6 0 2 P 1
            7.24700 5.71500
            n=5 2 2
            5.10700 2.83800
Au.gga.5 2
            n=6 0 2 P 1
            9.07500 5.78700
            n=5 2 2
            6.55700 2.87400
%endblock PAO.Basis
%block PAO.BasisSizes
    Au.gga.3	DZP
%endblock PAO.BasisSizes
LatticeConstant	1.0 Ang
%block LatticeVectors
    11.975725345373620     0.000000000000000     0.000000000000000
    0.000000000000000     10.371282377926580     0.000000000000000
    0.000000000000000     0.000000000000000     57.333623994331909
%endblock LatticeVectors
AtomicCoordinatesFormat  Ang
%block AtomicCoordinatesAndAtomicSpecies
    -0.001820638     -0.124733424     24.821300433 5
     2.964185062     -0.127930234     24.806757815 5
     5.930325805     -0.127185264     24.830339362 5
     8.904220201     -0.124168752     24.840547154 5
     1.480746454      2.445340133     24.801831191 5
     4.450660544      2.445387036     24.807496437 5
     7.421104691      2.444697956     24.844316074 5
    10.389327049      2.448342634     24.815452233 5
    -0.003793473      5.019748540     24.797326416 5
     2.963677544      5.020570888     24.780161877 5
     5.930763001      5.019237324     24.832041012 5
     8.907999899      5.016220255     24.848943781 5
     1.482233954      7.589976808     24.800016861 5
     4.445903799      7.591131237     24.798930485 5
     7.412578697      7.590572502     24.861827082 5
    10.390457257      7.588537060     24.829293729 5
     1.474565745      0.801806804     27.353547536 5
     4.446817659      0.797832673     27.359302556 5
     7.415967399      0.801242832     27.384541210 5
    10.386736115      0.807196086     27.362686176 5
    -0.010929915      3.369037469     27.339081135 5
     2.967647196      3.376366932     27.322929359 5
     5.934436399      3.373462559     27.367508351 5
     8.898107281      3.375102019     27.396981332 5
     1.478048014      5.953350509     27.327027967 5
     4.444116155      5.950399214     27.353387138 5
     7.415018639      5.940943877     27.392303152 5
    10.394919778      5.940116054     27.377930205 5
     0.005930454      8.510345365     27.354714671 5
     2.956282199      8.518525274     27.362930168 5
     5.924376778      8.517018157     27.386069082 5
     8.899585929      8.514116691     27.371367115 5
    -0.012193032      1.703679410     29.843557527 3
     2.962610069      1.704017974     29.803267281 3
     5.935760189      1.698808365     29.850929311 3
     8.905220790      1.690881644     29.877720459 3
     1.475307949      4.292831466     29.774771744 3
     4.448589084      4.277379280     29.823885666 3
     7.416840033      4.259152463     29.893045824 3
    10.383473937      4.264497279     29.861143838 3
    -0.014338077      6.841590179     29.846211400 3
     2.968663534      6.849143278     29.835051708 3
     5.934294897      6.839398203     29.870036413 3
     8.898308599      6.828792563     29.876596341 3
     1.470250910      9.419201257     29.851585759 3
     4.457122737      9.416545825     29.847301234 3
     7.419661444      9.405174908     29.875766201 3
    10.368737147      9.401867872     29.801581400 3
    -0.123589713      0.045249423     32.383043850 3
     2.971529051      0.112627888     32.403102663 3
     5.924854820      0.123364018     32.535832383 3
     8.848311305      0.102040063     32.565664807 3
     1.516405650      2.753199755     32.349725465 3
     4.469662700      2.701053073     32.465022429 3
     7.419564888      2.668721630     32.561625519 3
    10.398345918      2.675880729     32.512496746 3
    -0.039411819      5.251249646     32.482775734 3
     2.989195314      5.287914867     32.474183756 3
     5.946557519      5.260171258     32.529050266 3
     8.888083152      5.232144447     32.561986577 3
     1.451643684      7.815120828     32.455756261 3
     4.432233594      7.848835848     32.521402285 3
     7.387837153      7.823045493     32.535330953 3
    10.340001213      7.791545707     32.545945975 3
     0.508614963      1.165931900     35.149358867 2
     1.042418087      1.785408845     35.240470891 1
    -0.203112867      1.564711211     34.932465824 1
%endblock AtomicCoordinatesAndAtomicSpecies
%block DM.InitSpin
%endblock DM.InitSpin
DM.UseSaveDM	True
#KPoint grid
%block kgrid_Monkhorst_Pack
     1       0       0  0.0
     0       1       0  0.0
     0       0       1  0.0
%endblock kgrid_Monkhorst_Pack
