SystemName	geometry-10
SystemLabel	geometry-10
DM.MixingWeight	0.03
DM.NumberPulay	3
DM.Tolerance	1.d-4
DM.UseSaveDM	F
ElectronicTemperature	50 meV
MD.MaxForceTol	0.04 eV/Ang
MD.Steps	0
MD.TypeOfRun	CG
MD.UseSaveXV	F
MaxSCFIterations	500
MinSCFIterations	0
SCF.MustConverge	T
SaveDeltaRho	F
SaveElectrostaticPotential	F
SaveHS	F
SaveRho	F
SaveTotalPotential	F
SolutionMethod	diagon
Spin	non-polarized
Spin.Total	0
UseSaveData	F
WriteCoorStep	F
WriteCoorXmol	F
WriteEigenvalues	T
WriteForces	T
WriteHirshfeldPop	F
WriteKbands	F
WriteKpoints	F
WriteMDXmol	T
WriteMDhistory	F
WriteMullikenPop	0
WriteVoronoiPop	F
WriteWaveFunctions	F
SCFMustConverge	True
Spin     	non-polarized
XC.functional	GGA
XC.authors	PBE
MeshCutoff	9523.985108528535	eV
PAO.EnergyShift	0.1	eV
NumberOfSpecies	5
NumberOfAtoms	67
%block ChemicalSpecieslabel
    1 1 H.1
    2 8 O.2
    3 79 Au.gga.3
    4 79 Au.gga.4
    5 79 Au.gga.5
%endblock ChemicalSpecieslabel
%block PAO.Basis
H.1 2 0.46527
            n=1 0 2 E 99.93138 2.59932
            4.20357 1.84463
            n=2 1 1 E 24.56504 2.20231
            3.52816
O.2 3 -0.24233
            n=2 0 2 E 23.36061 3.39721
            4.50769 2.64066
            n=2 1 2 E 2.78334 5.14253
            6.14996 2.59356
            n=3 2 1 E 63.98188 0.16104
            3.54403
Au.gga.4 2
            n=6 0 2 P 1
            7.24700 5.71500
            n=5 2 2
            5.10700 2.83800
Au.gga.5 2
            n=6 0 2 P 1
            9.07500 5.78700
            n=5 2 2
            6.55700 2.87400
%endblock PAO.Basis
%block PAO.BasisSizes
    Au.gga.3	DZP
%endblock PAO.BasisSizes
LatticeConstant	1.0 Ang
%block LatticeVectors
    11.975725345373620     0.000000000000000     0.000000000000000
    0.000000000000000     10.371282377926580     0.000000000000000
    0.000000000000000     0.000000000000000     57.333623994331909
%endblock LatticeVectors
AtomicCoordinatesFormat  Ang
%block AtomicCoordinatesAndAtomicSpecies
    -0.009272244     -0.083057697     24.837943839 5
     2.967154453     -0.103008180     24.811000449 5
     5.921288609     -0.111034276     24.876091166 5
     8.903439967     -0.089063451     24.906924840 5
     1.485072117      2.466424803     24.779308163 5
     4.445715748      2.465451998     24.825900858 5
     7.418348290      2.477961409     24.890700550 5
    10.383010405      2.470424293     24.812905105 5
    -0.008126951      5.034200058     24.850700896 5
     2.969230108      5.047546376     24.794183067 5
     5.932573497      5.046260817     24.839130438 5
     8.896865779      5.036726899     24.923568507 5
     1.501297899      7.624674123     24.881973336 5
     4.447075461      7.622499721     24.796187932 5
     7.391413962      7.621342047     24.958524943 5
    10.370727324      7.620506550     24.931521049 5
     1.486977442      0.794788923     27.377188089 5
     4.434867665      0.801523699     27.408682083 5
     7.395029233      0.812475599     27.421236132 5
    10.371113500      0.829786733     27.421087331 5
    -0.010979703      3.347205353     27.334670308 5
     2.966026801      3.366319132     27.321928662 5
     5.923808501      3.373156980     27.383569520 5
     8.882598383      3.379069742     27.484283159 5
     1.477602729      5.935245411     27.346962999 5
     4.438465574      5.966838009     27.344848652 5
     7.409019451      5.947894118     27.452060069 5
    10.376902276      5.927974513     27.430097470 5
     0.031874986      8.540046577     27.356190233 5
     2.947511875      8.543481441     27.416155401 5
     5.898251266      8.520885704     27.475069818 5
     8.894811583      8.521983034     27.441241541 5
    -0.016870836      1.708216214     29.886546225 3
     2.935293739      1.690691348     29.867434253 3
     5.936290119      1.690590128     29.870284326 3
     8.919893330      1.666400673     29.958263807 3
     1.464505346      4.291856998     29.755304756 3
     4.435453402      4.285436712     29.794812422 3
     7.397711543      4.251392498     29.961005721 3
    10.373236879      4.238986307     29.911271263 3
    -0.032749475      6.841498648     29.826057826 3
     2.977582086      6.856816428     29.825131456 3
     5.927051608      6.818519804     29.924356158 3
     8.885307327      6.794698709     29.944772881 3
     1.443177470      9.416542348     29.957768024 3
     4.426843637      9.430701201     29.922356711 3
     7.435084469      9.385665179     29.915364730 3
    10.385197244      9.379185165     29.812879917 3
    -0.283077994     -0.073818081     32.367773328 3
     3.013494651      0.081359416     32.512364881 3
     5.902753905      0.060318016     32.504773927 3
     8.718163783      0.008224037     32.634037803 3
     1.567062723      2.980542765     32.187543204 3
     4.538616485      2.664306678     32.370490769 3
     7.458790147      2.613412357     32.561208133 3
    10.336324848      2.475205550     32.972041459 3
    -0.185700735      5.188199790     32.465960697 3
     3.085657093      5.365565693     32.430388589 3
     5.967023696      5.202669160     32.583854847 3
     8.845579719      5.104636167     32.727517780 3
     1.371383736      7.740723867     32.403916588 3
     4.407667993      7.856721802     32.568589602 3
     7.360301421      7.734593277     32.582393705 3
    10.261221151      7.673676540     32.621343805 3
     1.504718634      1.476058205     33.923990821 2
     1.810529218      1.773021954     34.805318515 1
    -0.168007430      1.369687758     33.604732492 1
%endblock AtomicCoordinatesAndAtomicSpecies
%block DM.InitSpin
%endblock DM.InitSpin
DM.UseSaveDM	True
#KPoint grid
%block kgrid_Monkhorst_Pack
     1       0       0  0.0
     0       1       0  0.0
     0       0       1  0.0
%endblock kgrid_Monkhorst_Pack
