SystemName	geometry-18
SystemLabel	geometry-18
DM.MixingWeight	0.03
DM.NumberPulay	3
DM.Tolerance	1.d-4
DM.UseSaveDM	F
ElectronicTemperature	50 meV
MD.MaxForceTol	0.04 eV/Ang
MD.Steps	0
MD.TypeOfRun	CG
MD.UseSaveXV	F
MaxSCFIterations	500
MinSCFIterations	0
SCF.MustConverge	T
SaveDeltaRho	F
SaveElectrostaticPotential	F
SaveHS	F
SaveRho	F
SaveTotalPotential	F
SolutionMethod	diagon
Spin	non-polarized
Spin.Total	0
UseSaveData	F
WriteCoorStep	F
WriteCoorXmol	F
WriteEigenvalues	T
WriteForces	T
WriteHirshfeldPop	F
WriteKbands	F
WriteKpoints	F
WriteMDXmol	T
WriteMDhistory	F
WriteMullikenPop	0
WriteVoronoiPop	F
WriteWaveFunctions	F
SCFMustConverge	True
Spin     	non-polarized
XC.functional	GGA
XC.authors	PBE
MeshCutoff	9523.985108528535	eV
PAO.EnergyShift	0.1	eV
NumberOfSpecies	5
NumberOfAtoms	67
%block ChemicalSpecieslabel
    1 1 H.1
    2 8 O.2
    3 79 Au.gga.3
    4 79 Au.gga.4
    5 79 Au.gga.5
%endblock ChemicalSpecieslabel
%block PAO.Basis
H.1 2 0.46527
            n=1 0 2 E 99.93138 2.59932
            4.20357 1.84463
            n=2 1 1 E 24.56504 2.20231
            3.52816
O.2 3 -0.24233
            n=2 0 2 E 23.36061 3.39721
            4.50769 2.64066
            n=2 1 2 E 2.78334 5.14253
            6.14996 2.59356
            n=3 2 1 E 63.98188 0.16104
            3.54403
Au.gga.4 2
            n=6 0 2 P 1
            7.24700 5.71500
            n=5 2 2
            5.10700 2.83800
Au.gga.5 2
            n=6 0 2 P 1
            9.07500 5.78700
            n=5 2 2
            6.55700 2.87400
%endblock PAO.Basis
%block PAO.BasisSizes
    Au.gga.3	DZP
%endblock PAO.BasisSizes
LatticeConstant	1.0 Ang
%block LatticeVectors
    11.975725345373620     0.000000000000000     0.000000000000000
    0.000000000000000     10.371282377926580     0.000000000000000
    0.000000000000000     0.000000000000000     57.333623994331909
%endblock LatticeVectors
AtomicCoordinatesFormat  Ang
%block AtomicCoordinatesAndAtomicSpecies
    -0.003013496     -0.077259791     24.824901750 5
     2.966201961     -0.092824817     24.829229519 5
     5.925854334     -0.102277298     24.870263924 5
     8.908832965     -0.080443264     24.895225378 5
     1.489837337      2.474860510     24.787569042 5
     4.443619428      2.476475139     24.835139265 5
     7.421619453      2.484981339     24.888686506 5
    10.388202550      2.476826843     24.821718212 5
     0.001570628      5.044527346     24.867590206 5
     2.965648128      5.057387519     24.813703910 5
     5.933194957      5.055150965     24.843084406 5
     8.899412469      5.047428064     24.948579264 5
     1.507769710      7.632771212     24.897067878 5
     4.448594007      7.634146110     24.813767003 5
     7.392280918      7.633267680     24.967369778 5
    10.377234901      7.629951064     24.935899060 5
     1.493252110      0.800709191     27.390536402 5
     4.436875683      0.804283794     27.410308390 5
     7.397241545      0.814893228     27.416548297 5
    10.372177393      0.828615080     27.403165789 5
    -0.007893839      3.355406408     27.352285866 5
     2.953662216      3.372562945     27.345728600 5
     5.922601606      3.373457086     27.374600521 5
     8.885773445      3.379712848     27.481649181 5
     1.487596808      5.938742759     27.382127184 5
     4.433481648      5.977996640     27.340824333 5
     7.406624060      5.954147191     27.451944724 5
    10.379272367      5.931887671     27.436386248 5
     0.038866690      8.544663555     27.354366543 5
     2.944711217      8.549351607     27.454040868 5
     5.887791970      8.537402672     27.483326680 5
     8.896677615      8.529949685     27.432469149 5
    -0.015619214      1.706475870     29.854504272 3
     2.932041473      1.707333803     29.894559309 3
     5.932525105      1.698678480     29.860905906 3
     8.917137264      1.673116525     29.945735392 3
     1.453099843      4.279179165     29.828601257 3
     4.431733888      4.293465807     29.778793358 3
     7.388225310      4.258084345     29.942541507 3
    10.363883194      4.238879623     29.931789262 3
    -0.027746213      6.840770022     29.819923894 3
     2.974228414      6.850469851     29.851145603 3
     5.930662448      6.824275992     29.907037808 3
     8.888753800      6.804390808     29.930609645 3
     1.433054115      9.432148335     29.987600384 3
     4.413292145      9.447729450     29.954296112 3
     7.445064057      9.390552428     29.900320017 3
    10.390350496      9.381173596     29.806449375 3
    -0.237081629     -0.033799618     32.328234537 3
     3.151771961      0.059587233     32.551022971 3
     5.984606232      0.029115304     32.455206020 3
     8.756346468      0.051470895     32.668595631 3
     1.464131153      2.912837076     32.284007910 3
     4.503053763      2.690343720     32.333816135 3
     7.400839841      2.632520282     32.546185127 3
    10.268662905      2.606724639     32.848563333 3
    -0.160854118      5.222546227     32.462282155 3
     3.026089048      5.323504886     32.450123037 3
     5.933568067      5.224017823     32.572796219 3
     8.824880455      5.144990966     32.680093576 3
     1.391989824      7.752351014     32.406297980 3
     4.425951812      7.801060269     32.534495803 3
     7.401787057      7.749525183     32.583324695 3
    10.293933781      7.698490024     32.612121760 3
     1.739133077      1.308642748     33.856011306 2
     2.098116697      1.639196856     34.709180326 1
    -0.709988230      1.198046984     33.584449926 1
%endblock AtomicCoordinatesAndAtomicSpecies
%block DM.InitSpin
%endblock DM.InitSpin
DM.UseSaveDM	True
#KPoint grid
%block kgrid_Monkhorst_Pack
     1       0       0  0.0
     0       1       0  0.0
     0       0       1  0.0
%endblock kgrid_Monkhorst_Pack
