SystemName	geometry-12
SystemLabel	geometry-12
DM.MixingWeight	0.03
DM.NumberPulay	3
DM.Tolerance	1.d-4
DM.UseSaveDM	F
ElectronicTemperature	50 meV
MD.MaxForceTol	0.04 eV/Ang
MD.Steps	0
MD.TypeOfRun	CG
MD.UseSaveXV	F
MaxSCFIterations	500
MinSCFIterations	0
SCF.MustConverge	T
SaveDeltaRho	F
SaveElectrostaticPotential	F
SaveHS	F
SaveRho	F
SaveTotalPotential	F
SolutionMethod	diagon
Spin	non-polarized
Spin.Total	0
UseSaveData	F
WriteCoorStep	F
WriteCoorXmol	F
WriteEigenvalues	T
WriteForces	T
WriteHirshfeldPop	F
WriteKbands	F
WriteKpoints	F
WriteMDXmol	T
WriteMDhistory	F
WriteMullikenPop	0
WriteVoronoiPop	F
WriteWaveFunctions	F
SCFMustConverge	True
Spin     	non-polarized
XC.functional	GGA
XC.authors	PBE
MeshCutoff	9523.985108528535	eV
PAO.EnergyShift	0.1	eV
NumberOfSpecies	5
NumberOfAtoms	67
%block ChemicalSpecieslabel
    1 1 H.1
    2 8 O.2
    3 79 Au.gga.3
    4 79 Au.gga.4
    5 79 Au.gga.5
%endblock ChemicalSpecieslabel
%block PAO.Basis
H.1 2 0.46527
            n=1 0 2 E 99.93138 2.59932
            4.20357 1.84463
            n=2 1 1 E 24.56504 2.20231
            3.52816
O.2 3 -0.24233
            n=2 0 2 E 23.36061 3.39721
            4.50769 2.64066
            n=2 1 2 E 2.78334 5.14253
            6.14996 2.59356
            n=3 2 1 E 63.98188 0.16104
            3.54403
Au.gga.4 2
            n=6 0 2 P 1
            7.24700 5.71500
            n=5 2 2
            5.10700 2.83800
Au.gga.5 2
            n=6 0 2 P 1
            9.07500 5.78700
            n=5 2 2
            6.55700 2.87400
%endblock PAO.Basis
%block PAO.BasisSizes
    Au.gga.3	DZP
%endblock PAO.BasisSizes
LatticeConstant	1.0 Ang
%block LatticeVectors
    11.975725345373620     0.000000000000000     0.000000000000000
    0.000000000000000     10.371282377926580     0.000000000000000
    0.000000000000000     0.000000000000000     57.333623994331909
%endblock LatticeVectors
AtomicCoordinatesFormat  Ang
%block AtomicCoordinatesAndAtomicSpecies
    -0.012583869     -0.083359070     24.837954632 5
     2.966604019     -0.103995840     24.816757336 5
     5.920882191     -0.113578010     24.875930398 5
     8.903563571     -0.089715725     24.912410070 5
     1.485718374      2.464685902     24.774690389 5
     4.440991782      2.463656541     24.830212173 5
     7.416274689      2.477617801     24.887970849 5
    10.380996479      2.467609430     24.812483665 5
    -0.009007158      5.031460597     24.857984289 5
     2.966590396      5.046545342     24.799579287 5
     5.930924436      5.045109805     24.834827449 5
     8.894017878      5.034232864     24.926593643 5
     1.502872661      7.623890320     24.899660750 5
     4.444734803      7.622851076     24.801938686 5
     7.387672392      7.621322556     24.964124220 5
    10.366791984      7.619659881     24.944082238 5
     1.489842967      0.790885068     27.377327200 5
     4.432142406      0.799015976     27.415982537 5
     7.390286678      0.810930274     27.418813448 5
    10.364709168      0.829504211     27.425956184 5
    -0.013064009      3.343762733     27.335206940 5
     2.958059908      3.363686670     27.331081162 5
     5.918530514      3.369292596     27.377793856 5
     8.878920603      3.376780557     27.488004986 5
     1.477341932      5.926385829     27.360987629 5
     4.435232842      5.968385359     27.340329335 5
     7.405272780      5.945346804     27.450177738 5
    10.369290358      5.923949100     27.432930071 5
     0.031411394      8.541790298     27.359441572 5
     2.943657916      8.544743237     27.434101947 5
     5.891558935      8.522237388     27.483820979 5
     8.893163219      8.520217289     27.446975205 5
    -0.018137498      1.707129067     29.872506912 3
     2.927456964      1.694095327     29.886135052 3
     5.931424359      1.691354689     29.866515246 3
     8.919234526      1.667036556     29.960792946 3
     1.454635822      4.283953553     29.784301543 3
     4.427761979      4.285967597     29.787469570 3
     7.387544845      4.256091669     29.953732734 3
    10.367048208      4.236041277     29.920942935 3
    -0.034670576      6.839792523     29.821549478 3
     2.973090978      6.851530862     29.831197027 3
     5.922903497      6.819461588     29.919018278 3
     8.882386878      6.795061805     29.941270387 3
     1.436133391      9.418932654     29.973535401 3
     4.413682658      9.436235661     29.943958092 3
     7.436901879      9.388072656     29.908447695 3
    10.391421857      9.378691080     29.826139579 3
    -0.236443996     -0.045022281     32.378106226 3
     3.049762212      0.074936817     32.560461797 3
     5.921139157      0.047610333     32.487428444 3
     8.736861707      0.013946794     32.584236558 3
     1.521115417      2.975229985     32.216457240 3
     4.533994417      2.666862068     32.347845658 3
     7.441656129      2.623792086     32.540490591 3
    10.287345837      2.512511822     33.001295843 3
    -0.191634473      5.204821150     32.462808406 3
     3.068783466      5.360405732     32.434152857 3
     5.948150527      5.210574354     32.575873014 3
     8.835380624      5.115608358     32.716838628 3
     1.373136760      7.747077095     32.411581274 3
     4.413864107      7.845546486     32.559337882 3
     7.374421856      7.734581471     32.579043203 3
    10.269537467      7.691778267     32.621609991 3
     1.622660536      1.489551964     33.904161109 2
     2.027651088      1.787172720     34.748663613 1
    -0.397284321      1.336304916     33.551924573 1
%endblock AtomicCoordinatesAndAtomicSpecies
%block DM.InitSpin
%endblock DM.InitSpin
DM.UseSaveDM	True
#KPoint grid
%block kgrid_Monkhorst_Pack
     1       0       0  0.0
     0       1       0  0.0
     0       0       1  0.0
%endblock kgrid_Monkhorst_Pack
