SystemName	geometry-16
SystemLabel	geometry-16
DM.MixingWeight	0.03
DM.NumberPulay	3
DM.Tolerance	1.d-4
DM.UseSaveDM	F
ElectronicTemperature	50 meV
MD.MaxForceTol	0.04 eV/Ang
MD.Steps	0
MD.TypeOfRun	CG
MD.UseSaveXV	F
MaxSCFIterations	500
MinSCFIterations	0
SCF.MustConverge	T
SaveDeltaRho	F
SaveElectrostaticPotential	F
SaveHS	F
SaveRho	F
SaveTotalPotential	F
SolutionMethod	diagon
Spin	non-polarized
Spin.Total	0
UseSaveData	F
WriteCoorStep	F
WriteCoorXmol	F
WriteEigenvalues	T
WriteForces	T
WriteHirshfeldPop	F
WriteKbands	F
WriteKpoints	F
WriteMDXmol	T
WriteMDhistory	F
WriteMullikenPop	0
WriteVoronoiPop	F
WriteWaveFunctions	F
SCFMustConverge	True
Spin     	non-polarized
XC.functional	GGA
XC.authors	PBE
MeshCutoff	9523.985108528535	eV
PAO.EnergyShift	0.1	eV
NumberOfSpecies	5
NumberOfAtoms	67
%block ChemicalSpecieslabel
    1 1 H.1
    2 8 O.2
    3 79 Au.gga.3
    4 79 Au.gga.4
    5 79 Au.gga.5
%endblock ChemicalSpecieslabel
%block PAO.Basis
H.1 2 0.46527
            n=1 0 2 E 99.93138 2.59932
            4.20357 1.84463
            n=2 1 1 E 24.56504 2.20231
            3.52816
O.2 3 -0.24233
            n=2 0 2 E 23.36061 3.39721
            4.50769 2.64066
            n=2 1 2 E 2.78334 5.14253
            6.14996 2.59356
            n=3 2 1 E 63.98188 0.16104
            3.54403
Au.gga.4 2
            n=6 0 2 P 1
            7.24700 5.71500
            n=5 2 2
            5.10700 2.83800
Au.gga.5 2
            n=6 0 2 P 1
            9.07500 5.78700
            n=5 2 2
            6.55700 2.87400
%endblock PAO.Basis
%block PAO.BasisSizes
    Au.gga.3	DZP
%endblock PAO.BasisSizes
LatticeConstant	1.0 Ang
%block LatticeVectors
    11.975725345373620     0.000000000000000     0.000000000000000
    0.000000000000000     10.371282377926580     0.000000000000000
    0.000000000000000     0.000000000000000     57.333623994331909
%endblock LatticeVectors
AtomicCoordinatesFormat  Ang
%block AtomicCoordinatesAndAtomicSpecies
     0.013782436     -0.064890445     24.812960633 5
     2.969764879     -0.075466904     24.840745691 5
     5.935351595     -0.084822554     24.862559790 5
     8.918144164     -0.065493890     24.867106362 5
     1.497201958      2.490837447     24.807780855 5
     4.455721690      2.495367451     24.839432103 5
     7.432591640      2.497988231     24.887458898 5
    10.401779707      2.492062291     24.828599690 5
     0.017492912      5.062506622     24.878003522 5
     2.971634703      5.072715639     24.837359225 5
     5.943569572      5.070424956     24.855037872 5
     8.910416598      5.068777012     24.967016461 5
     1.516746599      7.647742183     24.890141309 5
     4.461525538      7.650014857     24.827092122 5
     7.405464335      7.650695526     24.962818320 5
    10.394987339      7.646895047     24.920449948 5
     1.500011905      0.817599104     27.415819606 5
     4.448431037      0.816768150     27.399550906 5
     7.413016188      0.824273351     27.410368987 5
    10.393214282      0.830281113     27.378142168 5
     0.007456015      3.371623235     27.377678575 5
     2.961637618      3.383936183     27.360887892 5
     5.936350429      3.383669704     27.379399577 5
     8.902185572      3.386819386     27.463188656 5
     1.503075064      5.958569379     27.401643291 5
     4.439395353      5.988325769     27.346696896 5
     7.418500171      5.972340638     27.452520449 5
    10.401286523      5.946168298     27.433725564 5
     0.052541168      8.554254339     27.348621016 5
     2.954634894      8.557784483     27.461336860 5
     5.894884042      8.555284264     27.474043940 5
     8.909740896      8.547917845     27.414600379 5
    -0.005489348      1.711695869     29.868338031 3
     2.947966228      1.718741792     29.903780257 3
     5.943786970      1.707583450     29.860814235 3
     8.920657191      1.683461661     29.917931808 3
     1.468601724      4.279761778     29.862488039 3
     4.448783836      4.304971117     29.780052542 3
     7.404902056      4.260941004     29.929764989 3
    10.373051089      4.249383864     29.927681036 3
    -0.013108801      6.847876690     29.818985657 3
     2.986250287      6.860078993     29.865129784 3
     5.948249575      6.830000485     29.897558993 3
     8.903397245      6.818372653     29.918628120 3
     1.440925826      9.448169732     30.004662703 3
     4.425983854      9.459925464     29.945539122 3
     7.458302623      9.393607295     29.890903842 3
    10.395645706      9.391620741     29.785650589 3
    -0.290199835     -0.052377393     32.299758403 3
     3.236118580      0.055266850     32.525244941 3
     6.039267034      0.019898517     32.419448912 3
     8.749243415      0.086343734     32.831523437 3
     1.463788913      2.876241948     32.352891386 3
     4.480811340      2.713427264     32.344683335 3
     7.386118734      2.635385928     32.554690238 3
    10.302998538      2.640061285     32.700851230 3
    -0.127231585      5.218928791     32.468687128 3
     3.011749030      5.301274419     32.462972993 3
     5.946452938      5.228405827     32.576436540 3
     8.827650251      5.160954945     32.654923133 3
     1.412321127      7.748924805     32.391404590 3
     4.438126772      7.768133613     32.517129915 3
     7.424722106      7.765209089     32.587343992 3
    10.318339001      7.679263806     32.589898410 3
     1.690129353      1.090224998     33.766060539 2
     1.946016179      1.337984910     34.660087948 1
    -1.012867141      1.086604817     33.574489878 1
%endblock AtomicCoordinatesAndAtomicSpecies
%block DM.InitSpin
%endblock DM.InitSpin
DM.UseSaveDM	True
#KPoint grid
%block kgrid_Monkhorst_Pack
     1       0       0  0.0
     0       1       0  0.0
     0       0       1  0.0
%endblock kgrid_Monkhorst_Pack
