SystemName	geometry-6
SystemLabel	geometry-6
DM.MixingWeight	0.03
DM.NumberPulay	3
DM.Tolerance	1.d-4
DM.UseSaveDM	F
ElectronicTemperature	50 meV
MD.MaxForceTol	0.04 eV/Ang
MD.Steps	0
MD.TypeOfRun	CG
MD.UseSaveXV	F
MaxSCFIterations	500
MinSCFIterations	0
SCF.MustConverge	T
SaveDeltaRho	F
SaveElectrostaticPotential	F
SaveHS	F
SaveRho	F
SaveTotalPotential	F
SolutionMethod	diagon
Spin	non-polarized
Spin.Total	0
UseSaveData	F
WriteCoorStep	F
WriteCoorXmol	F
WriteEigenvalues	T
WriteForces	T
WriteHirshfeldPop	F
WriteKbands	F
WriteKpoints	F
WriteMDXmol	T
WriteMDhistory	F
WriteMullikenPop	0
WriteVoronoiPop	F
WriteWaveFunctions	F
SCFMustConverge	True
Spin     	non-polarized
XC.functional	GGA
XC.authors	PBE
MeshCutoff	9523.985108528535	eV
PAO.EnergyShift	0.1	eV
NumberOfSpecies	5
NumberOfAtoms	67
%block ChemicalSpecieslabel
    1 1 H.1
    2 8 O.2
    3 79 Au.gga.3
    4 79 Au.gga.4
    5 79 Au.gga.5
%endblock ChemicalSpecieslabel
%block PAO.Basis
H.1 2 0.46527
            n=1 0 2 E 99.93138 2.59932
            4.20357 1.84463
            n=2 1 1 E 24.56504 2.20231
            3.52816
O.2 3 -0.24233
            n=2 0 2 E 23.36061 3.39721
            4.50769 2.64066
            n=2 1 2 E 2.78334 5.14253
            6.14996 2.59356
            n=3 2 1 E 63.98188 0.16104
            3.54403
Au.gga.4 2
            n=6 0 2 P 1
            7.24700 5.71500
            n=5 2 2
            5.10700 2.83800
Au.gga.5 2
            n=6 0 2 P 1
            9.07500 5.78700
            n=5 2 2
            6.55700 2.87400
%endblock PAO.Basis
%block PAO.BasisSizes
    Au.gga.3	DZP
%endblock PAO.BasisSizes
LatticeConstant	1.0 Ang
%block LatticeVectors
    11.975725345373620     0.000000000000000     0.000000000000000
    0.000000000000000     10.371282377926580     0.000000000000000
    0.000000000000000     0.000000000000000     57.333623994331909
%endblock LatticeVectors
AtomicCoordinatesFormat  Ang
%block AtomicCoordinatesAndAtomicSpecies
    -0.004166136     -0.106188420     24.822840464 5
     2.960679807     -0.114827577     24.800792304 5
     5.920942478     -0.114809532     24.858957195 5
     8.899267005     -0.105983692     24.874616105 5
     1.478137460      2.458415659     24.795615717 5
     4.446568954      2.458889675     24.809845435 5
     7.418606124      2.459981762     24.883719336 5
    10.384201552      2.464245300     24.823743886 5
    -0.007529376      5.034637872     24.812226353 5
     2.962441046      5.037643337     24.764332944 5
     5.924089464      5.035106476     24.846565838 5
     8.902713855      5.028678072     24.902403177 5
     1.484855479      7.607398831     24.804924139 5
     4.439995461      7.607073487     24.784320217 5
     7.398411633      7.606013097     24.918917207 5
    10.382786143      7.604260294     24.863168657 5
     1.469962154      0.801810871     27.353794460 5
     4.438316664      0.797752865     27.373919593 5
     7.405570011      0.805329209     27.419028518 5
    10.376567255      0.816885469     27.376242931 5
    -0.019505574      3.363898171     27.329548981 5
     2.966396379      3.378113569     27.302737556 5
     5.928887005      3.376251841     27.378639384 5
     8.886649957      3.378498066     27.456150508 5
     1.474929223      5.961418861     27.312425286 5
     4.436168618      5.959550483     27.352351915 5
     7.405089697      5.941070784     27.436620989 5
    10.390608285      5.937639614     27.413340446 5
     0.016220348      8.513444036     27.344881763 5
     2.947618343      8.525878039     27.375126414 5
     5.907568328      8.518593854     27.429291640 5
     8.887138589      8.514981129     27.395463024 5
    -0.022919238      1.699317613     29.846959526 3
     2.951765144      1.696030116     29.791496659 3
     5.933449953      1.692713116     29.861255882 3
     8.905450215      1.670203116     29.932896346 3
     1.467556767      4.303392284     29.720134367 3
     4.442652409      4.277779594     29.806226818 3
     7.407786556      4.240608640     29.951814568 3
    10.372638584      4.246066875     29.894387654 3
    -0.029422743      6.836598155     29.844950013 3
     2.969146470      6.850392021     29.831860511 3
     5.929172794      6.825019138     29.907782500 3
     8.888111996      6.804085389     29.924553072 3
     1.454068194      9.412738214     29.872689156 3
     4.454249624      9.413912973     29.868220978 3
     7.419369657      9.386818920     29.917460332 3
    10.349648955      9.377463023     29.762442399 3
    -0.265062612     -0.053031955     32.283145509 3
     2.974556477      0.085804129     32.354368817 3
     5.905920068      0.096670425     32.556274016 3
     8.770957196      0.052537180     32.659698793 3
     1.554136249      2.830596597     32.201247236 3
     4.494189326      2.684132465     32.423715447 3
     7.427648368      2.619987042     32.618685864 3
    10.402220267      2.598270369     32.620506643 3
    -0.099927857      5.210593415     32.469716432 3
     3.026314716      5.306171135     32.450336862 3
     5.959249477      5.224931069     32.572054556 3
     8.863951086      5.161310729     32.654296978 3
     1.405271078      7.769392480     32.416081767 3
     4.405687869      7.843577841     32.551156207 3
     7.352191043      7.776034264     32.575893283 3
    10.281053195      7.715749698     32.607277362 3
     1.109770364      1.286052605     34.556453400 2
     1.396383583      1.940288016     35.135935284 1
     0.298111379      1.496576869     34.362253375 1
%endblock AtomicCoordinatesAndAtomicSpecies
%block DM.InitSpin
%endblock DM.InitSpin
DM.UseSaveDM	True
#KPoint grid
%block kgrid_Monkhorst_Pack
     1       0       0  0.0
     0       1       0  0.0
     0       0       1  0.0
%endblock kgrid_Monkhorst_Pack
