SystemName	geometry-0
SystemLabel	geometry-0
DM.MixingWeight	0.03
DM.NumberPulay	3
DM.Tolerance	1.d-4
DM.UseSaveDM	F
ElectronicTemperature	50 meV
MD.MaxForceTol	0.04 eV/Ang
MD.Steps	0
MD.TypeOfRun	CG
MD.UseSaveXV	F
MaxSCFIterations	500
MinSCFIterations	0
SCF.MustConverge	T
SaveDeltaRho	F
SaveElectrostaticPotential	F
SaveHS	F
SaveRho	F
SaveTotalPotential	F
SolutionMethod	diagon
Spin	non-polarized
Spin.Total	0
UseSaveData	F
WriteCoorStep	F
WriteCoorXmol	F
WriteEigenvalues	T
WriteForces	T
WriteHirshfeldPop	F
WriteKbands	F
WriteKpoints	F
WriteMDXmol	T
WriteMDhistory	F
WriteMullikenPop	0
WriteVoronoiPop	F
WriteWaveFunctions	F
SCFMustConverge	True
Spin     	non-polarized
XC.functional	GGA
XC.authors	PBE
MeshCutoff	9523.985108528535	eV
PAO.EnergyShift	0.1	eV
NumberOfSpecies	5
NumberOfAtoms	67
%block ChemicalSpecieslabel
    1 1 H.1
    2 8 O.2
    3 79 Au.gga.3
    4 79 Au.gga.4
    5 79 Au.gga.5
%endblock ChemicalSpecieslabel
%block PAO.Basis
H.1 2 0.46527
            n=1 0 2 E 99.93138 2.59932
            4.20357 1.84463
            n=2 1 1 E 24.56504 2.20231
            3.52816
O.2 3 -0.24233
            n=2 0 2 E 23.36061 3.39721
            4.50769 2.64066
            n=2 1 2 E 2.78334 5.14253
            6.14996 2.59356
            n=3 2 1 E 63.98188 0.16104
            3.54403
Au.gga.4 2
            n=6 0 2 P 1
            7.24700 5.71500
            n=5 2 2
            5.10700 2.83800
Au.gga.5 2
            n=6 0 2 P 1
            9.07500 5.78700
            n=5 2 2
            6.55700 2.87400
%endblock PAO.Basis
%block PAO.BasisSizes
    Au.gga.3	DZP
%endblock PAO.BasisSizes
LatticeConstant	1.0 Ang
%block LatticeVectors
    11.975725345373620     0.000000000000000     0.000000000000000
    0.000000000000000     10.371282377926580     0.000000000000000
    0.000000000000000     0.000000000000000     57.333623994331909
%endblock LatticeVectors
AtomicCoordinatesFormat  Ang
%block AtomicCoordinatesAndAtomicSpecies
    -0.003534062     -0.111506736     24.821745202 5
     2.961090267     -0.118395778     24.801749891 5
     5.922957078     -0.117854584     24.851778330 5
     8.900126314     -0.110918715     24.865687406 5
     1.478359511      2.455027947     24.797628087 5
     4.447327166      2.455474663     24.808635119 5
     7.419075604      2.455645544     24.874589131 5
    10.385294403      2.460294499     24.822449782 5
    -0.006739555      5.031249515     24.807179791 5
     2.962259040      5.033303887     24.766407956 5
     5.925041685      5.030962258     24.843579392 5
     8.904060114      5.025387138     24.889597777 5
     1.483461676      7.602608942     24.800473770 5
     4.440822776      7.602742088     24.787091765 5
     7.401738201      7.601781238     24.904494285 5
    10.384927704      7.599891474     24.852631648 5
     1.470178760      0.802004220     27.352480108 5
     4.440249813      0.797463047     27.369173074 5
     7.408210055      0.803986564     27.411249123 5
    10.378825688      0.814070444     27.371155296 5
    -0.018162037      3.365742100     27.331347597 5
     2.966401901      3.378225339     27.306471585 5
     5.930162585      3.375644027     27.375725182 5
     8.889222542      3.377627226     27.441829141 5
     1.475435904      5.960651994     27.314291105 5
     4.437677088      5.957188664     27.352801467 5
     7.406919801      5.940563939     27.425995683 5
    10.391960545      5.938517489     27.404776662 5
     0.013098828      8.511423669     27.346585250 5
     2.949379246      8.523372593     27.370913947 5
     5.911508853      8.518136349     27.417721219 5
     8.889398727      8.514329781     27.388020220 5
    -0.020934792      1.699769385     29.843652076 3
     2.954704743      1.698157756     29.790777274 3
     5.933621592      1.694172622     29.858385641 3
     8.904622046      1.674953929     29.919576721 3
     1.469051769      4.301392286     29.731265574 3
     4.444033596      4.277288734     29.810453381 3
     7.409919308      4.244288951     29.938174258 3
    10.374763111      4.250369597     29.886531142 3
    -0.026025016      6.837370539     29.846053780 3
     2.968424472      6.849583462     29.833089143 3
     5.930231616      6.828542432     29.898449159 3
     8.890372001      6.809995496     29.912850204 3
     1.457938696      9.414012310     29.864139516 3
     4.455824546      9.413786910     29.861567732 3
     7.418654377      9.390997115     29.908169821 3
    10.352214139      9.382709724     29.768948601 3
    -0.231266147     -0.029287318     32.301179831 3
     2.972933640      0.091731680     32.358620947 3
     5.910765998      0.104016742     32.553921374 3
     8.791380359      0.065854962     32.638269631 3
     1.543588532      2.805684960     32.235498777 3
     4.486377172      2.688923582     32.434771485 3
     7.423702003      2.631409171     32.608368479 3
    10.403032050      2.622937287     32.579834386 3
    -0.082433863      5.221282225     32.472665742 3
     3.014521739      5.298946773     32.456722811 3
     5.955379691      5.234105482     32.561692044 3
     8.869862667      5.180185820     32.629864910 3
     1.417255057      7.781172050     32.425742897 3
     4.411617579      7.843743712     32.543421630 3
     7.360055503      7.788499506     32.566500334 3
    10.295294741      7.735280167     32.593097891 3
     0.961059928      1.250686620     34.719288643 2
     1.284044376      1.899329076     35.174241864 1
     0.204662433      1.515529342     34.520863090 1
%endblock AtomicCoordinatesAndAtomicSpecies
%block DM.InitSpin
%endblock DM.InitSpin
DM.UseSaveDM	True
#KPoint grid
%block kgrid_Monkhorst_Pack
     1       0       0  0.0
     0       1       0  0.0
     0       0       1  0.0
%endblock kgrid_Monkhorst_Pack
