SystemName	geometry-11
SystemLabel	geometry-11
DM.MixingWeight	0.03
DM.NumberPulay	3
DM.Tolerance	1.d-4
DM.UseSaveDM	F
ElectronicTemperature	50 meV
MD.MaxForceTol	0.04 eV/Ang
MD.Steps	0
MD.TypeOfRun	CG
MD.UseSaveXV	F
MaxSCFIterations	500
MinSCFIterations	0
SCF.MustConverge	T
SaveDeltaRho	F
SaveElectrostaticPotential	F
SaveHS	F
SaveRho	F
SaveTotalPotential	F
SolutionMethod	diagon
Spin	non-polarized
Spin.Total	0
UseSaveData	F
WriteCoorStep	F
WriteCoorXmol	F
WriteEigenvalues	T
WriteForces	T
WriteHirshfeldPop	F
WriteKbands	F
WriteKpoints	F
WriteMDXmol	T
WriteMDhistory	F
WriteMullikenPop	0
WriteVoronoiPop	F
WriteWaveFunctions	F
SCFMustConverge	True
Spin     	non-polarized
XC.functional	GGA
XC.authors	PBE
MeshCutoff	9523.985108528535	eV
PAO.EnergyShift	0.1	eV
NumberOfSpecies	5
NumberOfAtoms	67
%block ChemicalSpecieslabel
    1 1 H.1
    2 8 O.2
    3 79 Au.gga.3
    4 79 Au.gga.4
    5 79 Au.gga.5
%endblock ChemicalSpecieslabel
%block PAO.Basis
H.1 2 0.46527
            n=1 0 2 E 99.93138 2.59932
            4.20357 1.84463
            n=2 1 1 E 24.56504 2.20231
            3.52816
O.2 3 -0.24233
            n=2 0 2 E 23.36061 3.39721
            4.50769 2.64066
            n=2 1 2 E 2.78334 5.14253
            6.14996 2.59356
            n=3 2 1 E 63.98188 0.16104
            3.54403
Au.gga.4 2
            n=6 0 2 P 1
            7.24700 5.71500
            n=5 2 2
            5.10700 2.83800
Au.gga.5 2
            n=6 0 2 P 1
            9.07500 5.78700
            n=5 2 2
            6.55700 2.87400
%endblock PAO.Basis
%block PAO.BasisSizes
    Au.gga.3	DZP
%endblock PAO.BasisSizes
LatticeConstant	1.0 Ang
%block LatticeVectors
    11.975725345373620     0.000000000000000     0.000000000000000
    0.000000000000000     10.371282377926580     0.000000000000000
    0.000000000000000     0.000000000000000     57.333623994331909
%endblock LatticeVectors
AtomicCoordinatesFormat  Ang
%block AtomicCoordinatesAndAtomicSpecies
    -0.005688273     -0.093914488     24.827969548 5
     2.962013549     -0.107399120     24.801764326 5
     5.918865578     -0.109900147     24.871596220 5
     8.899444756     -0.095717482     24.892381921 5
     1.479687358      2.464718218     24.789762639 5
     4.446162307      2.464871918     24.814947203 5
     7.418346635      2.469792287     24.896274469 5
    10.382999852      2.470834571     24.822467908 5
    -0.008352788      5.038856912     24.827273470 5
     2.964809977      5.045430623     24.769344078 5
     5.925525114      5.043019335     24.848632876 5
     8.900081434      5.035016352     24.922311091 5
     1.490644173      7.617609922     24.828022688 5
     4.441309247      7.616141987     24.783680240 5
     7.393351466      7.615000877     24.945023575 5
    10.377800952      7.613744465     24.891473128 5
     1.473892007      0.800357745     27.361627492 5
     4.435637244      0.799483597     27.387482161 5
     7.400502419      0.809002906     27.428713535 5
    10.373520414      0.823532947     27.393039990 5
    -0.018411545      3.357958364     27.328980823 5
     2.967344470      3.375296017     27.302522281 5
     5.926860822      3.376687646     27.384007744 5
     8.883240325      3.379978743     27.479245722 5
     1.475208801      5.956654127     27.317804427 5
     4.435504690      5.964043862     27.350471875 5
     7.404599732      5.943901208     27.453012660 5
    10.386577192      5.934706707     27.427122842 5
     0.024056832      8.522604457     27.345472783 5
     2.946142611      8.533271799     27.388548006 5
     5.901518561      8.519688087     27.453349182 5
     8.886893403      8.517924102     27.415133323 5
    -0.023348642      1.701322086     29.862997050 3
     2.945180897      1.691869058     29.810056779 3
     5.934694221      1.690467528     29.867366139 3
     8.910304344      1.663797995     29.954199792 3
     1.466398805      4.303617055     29.713389613 3
     4.440273185      4.280377135     29.799335141 3
     7.404099749      4.238699132     29.970557916 3
    10.371219007      4.239754630     29.906537673 3
    -0.033812294      6.837276684     29.839272971 3
     2.972840009      6.853734556     29.828045352 3
     5.928061141      6.819226716     29.923354720 3
     8.885278502      6.794953058     29.943533658 3
     1.447733486      9.412117167     29.902989657 3
     4.446975503      9.417883267     29.887292091 3
     7.424197627      9.381486137     29.928264954 3
    10.355357841      9.372089561     29.766511993 3
    -0.314461411     -0.089240747     32.283406359 3
     2.982800480      0.078654879     32.384955255 3
     5.897711281      0.080248980     32.547269645 3
     8.731443259      0.025276690     32.684770257 3
     1.575246760      2.898795972     32.155611210 3
     4.515177064      2.673322534     32.400021252 3
     7.442353011      2.603993496     32.617930212 3
    10.390298461      2.533426330     32.754559899 3
    -0.141417000      5.190443297     32.465813422 3
     3.057342078      5.330497983     32.437450917 3
     5.968143926      5.207683557     32.587970818 3
     8.853677248      5.123674511     32.702504271 3
     1.382653995      7.747626686     32.400819780 3
     4.398787282      7.847984034     32.565561282 3
     7.343801888      7.751064167     32.588738456 3
    10.258784364      7.680054340     32.626907854 3
     1.367909814      1.372950392     34.206440792 2
     1.584808592      1.901270184     34.991964327 1
     0.307847534      1.452643203     33.988836973 1
%endblock AtomicCoordinatesAndAtomicSpecies
%block DM.InitSpin
%endblock DM.InitSpin
DM.UseSaveDM	True
#KPoint grid
%block kgrid_Monkhorst_Pack
     1       0       0  0.0
     0       1       0  0.0
     0       0       1  0.0
%endblock kgrid_Monkhorst_Pack
