SystemName	geometry-22
SystemLabel	geometry-22
DM.MixingWeight	0.03
DM.NumberPulay	3
DM.Tolerance	1.d-4
DM.UseSaveDM	F
ElectronicTemperature	50 meV
MD.MaxForceTol	0.04 eV/Ang
MD.Steps	0
MD.TypeOfRun	CG
MD.UseSaveXV	F
MaxSCFIterations	500
MinSCFIterations	0
SCF.MustConverge	T
SaveDeltaRho	F
SaveElectrostaticPotential	F
SaveHS	F
SaveRho	F
SaveTotalPotential	F
SolutionMethod	diagon
Spin	non-polarized
Spin.Total	0
UseSaveData	F
WriteCoorStep	F
WriteCoorXmol	F
WriteEigenvalues	T
WriteForces	T
WriteHirshfeldPop	F
WriteKbands	F
WriteKpoints	F
WriteMDXmol	T
WriteMDhistory	F
WriteMullikenPop	0
WriteVoronoiPop	F
WriteWaveFunctions	F
SCFMustConverge	True
Spin     	non-polarized
XC.functional	GGA
XC.authors	PBE
MeshCutoff	9523.985108528535	eV
PAO.EnergyShift	0.1	eV
NumberOfSpecies	5
NumberOfAtoms	67
%block ChemicalSpecieslabel
    1 1 H.1
    2 8 O.2
    3 79 Au.gga.3
    4 79 Au.gga.4
    5 79 Au.gga.5
%endblock ChemicalSpecieslabel
%block PAO.Basis
H.1 2 0.46527
            n=1 0 2 E 99.93138 2.59932
            4.20357 1.84463
            n=2 1 1 E 24.56504 2.20231
            3.52816
O.2 3 -0.24233
            n=2 0 2 E 23.36061 3.39721
            4.50769 2.64066
            n=2 1 2 E 2.78334 5.14253
            6.14996 2.59356
            n=3 2 1 E 63.98188 0.16104
            3.54403
Au.gga.4 2
            n=6 0 2 P 1
            7.24700 5.71500
            n=5 2 2
            5.10700 2.83800
Au.gga.5 2
            n=6 0 2 P 1
            9.07500 5.78700
            n=5 2 2
            6.55700 2.87400
%endblock PAO.Basis
%block PAO.BasisSizes
    Au.gga.3	DZP
%endblock PAO.BasisSizes
LatticeConstant	1.0 Ang
%block LatticeVectors
    11.975725345373620     0.000000000000000     0.000000000000000
    0.000000000000000     10.371282377926580     0.000000000000000
    0.000000000000000     0.000000000000000     57.333623994331909
%endblock LatticeVectors
AtomicCoordinatesFormat  Ang
%block AtomicCoordinatesAndAtomicSpecies
     0.012056098     -0.066202018     24.814054705 5
     2.969338267     -0.077239356     24.839641506 5
     5.934352992     -0.086590828     24.863334048 5
     8.917170546     -0.067030469     24.869968717 5
     1.496426299      2.489210040     24.805741631 5
     4.454392654      2.493460154     24.839009910 5
     7.431441088      2.496632384     24.887643336 5
    10.400365987      2.490507881     24.828014192 5
     0.015874891      5.060720876     24.876947751 5
     2.970925144      5.071175273     24.834862944 5
     5.942411460      5.068872699     24.853860041 5
     8.909269687      5.066594034     24.965347416 5
     1.515791817      7.646194576     24.890755386 5
     4.460109327      7.648410754     24.825758447 5
     7.404047802      7.648925885     24.963390549 5
    10.393174143      7.645148994     24.921976690 5
     1.499272695      0.815872575     27.413150721 5
     4.447201880      0.815440424     27.400626173 5
     7.411358415      0.823273170     27.411063863 5
    10.390960172      0.830064771     27.380507086 5
     0.005783734      3.370016864     27.375087720 5
     2.960651532      3.382828630     27.359378702 5
     5.934866286      3.382594588     27.378800775 5
     8.900441415      3.386068890     27.465186746 5
     1.501496719      5.956596998     27.399737933 5
     4.438679476      5.987326050     27.346050854 5
     7.417158980      5.970424212     27.452510475 5
    10.398987720      5.944705353     27.434101543 5
     0.051109586      8.553176377     27.349150749 5
     2.953518146      8.556889504     27.460815630 5
     5.894007521      8.553528343     27.475059275 5
     8.908295168      8.546044470     27.416314050 5
    -0.006615560      1.711071533     29.866376928 3
     2.946257826      1.717687901     29.902745198 3
     5.942521275      1.706702713     29.860718786 3
     8.920195281      1.682381417     29.920832326 3
     1.466810676      4.279640060     29.859327230 3
     4.446926334      4.303789065     29.779751388 3
     7.403028421      4.260614091     29.931061516 3
    10.371939759      4.248234627     29.928353175 3
    -0.014655475      6.847073936     29.819093157 3
     2.984892628      6.858959459     29.863913264 3
     5.946392319      6.829433287     29.898430919 3
     8.901844304      6.816943692     29.919813345 3
     1.439976682      9.446577973     30.002861346 3
     4.424579300      9.458718878     29.946652901 3
     7.456921497      9.393287166     29.891874771 3
    10.394943702      9.390449952     29.787524193 3
    -0.284309022     -0.050138675     32.301828704 3
     3.228338016      0.055455596     32.527677497 3
     6.034201604      0.020639987     32.423031349 3
     8.750407469      0.083087991     32.814712607 3
     1.462810974      2.879092888     32.346159388 3
     4.482725179      2.711249040     32.343238601 3
     7.387003296      2.635176320     32.553989305 3
    10.298876982      2.638113487     32.714364067 3
    -0.130410193      5.219654577     32.467942331 3
     3.012540755      5.303046121     32.461812200 3
     5.944725987      5.228150806     32.575995258 3
     8.827149005      5.159694583     32.657090464 3
     1.410362089      7.749407289     32.392975418 3
     4.436931819      7.771033533     32.518652712 3
     7.422563251      7.763718521     32.586999841 3
    10.315980595      7.681555129     32.592292844 3
     1.697812147      1.111537932     33.796169078 2
     1.964620507      1.369882612     34.665385310 1
    -0.982829857      1.096843946     33.556881973 1
%endblock AtomicCoordinatesAndAtomicSpecies
%block DM.InitSpin
%endblock DM.InitSpin
DM.UseSaveDM	True
#KPoint grid
%block kgrid_Monkhorst_Pack
     1       0       0  0.0
     0       1       0  0.0
     0       0       1  0.0
%endblock kgrid_Monkhorst_Pack
